KPOINTS from doped, with reciprocal_density = 410/Å⁻³
0
Gamma
12 12 4
