KPOINTS from doped, with reciprocal_density = 245/Å⁻³
0
Gamma
12 12 7
