KPOINTS from doped, with reciprocal_density = 255/Å⁻³
0
Gamma
11 11 11
