KPOINTS from doped, with reciprocal_density = 165/Å⁻³
0
Gamma
11 11 6
