50.0% N(Distort)=1 ~[0.5,0.5,0.5]
1.0
  12.5998379999999983    0.0000000000000004    0.0000000000000004
   0.0000000000000004   12.5998379999999983   -0.0000000000000004
  -0.0000000000000004   -0.0000000000000004   12.5998379999999983
Mg O
109 107
direct
   0.6719359826099596    0.0164400566803896   -0.0025562813959436 Mg
   0.8333333333333333    0.1666666666666667    1.0000000000000000 Mg
   0.8356993213461827    1.0223522002184962    0.1641323011046227 Mg
   0.3224763702131981    0.0044599364366762   -0.0124259056236310 Mg
   0.5248438668437096    0.1340167727506748    0.0208845527956899 Mg
   0.6714935292382217    0.3457211772833228   -0.0209526067947342 Mg
   0.8290737230186719    0.5128489518682409    0.9753351773185092 Mg
   0.4916111432182905   -0.0188535355206976    0.1598155402881129 Mg
   0.6678441349996687    0.1610208860998654    0.1570750534364992 Mg
   0.8398290960954995    0.3139069218633367    0.1559451496808327 Mg
   0.6529922647312478   -0.0208375328663862    0.3414634871060681 Mg
   0.8124553172097678    0.1724265207581707    0.3719921070213105 Mg
   0.8291622113746426    1.0039509444368677    0.5026343119931180 Mg
  -0.0069022986372929    0.0092833471422982   -0.0133885478690174 Mg
   0.1643032916427699    0.1554628307965338   -0.0148012776137066 Mg
   0.3226589746875551    0.3198286019852282    0.0027769528686233 Mg
   0.4898302872752315    0.4965931121083731    0.0099678911463674 Mg
   0.6648481036028092    0.6901314666110495    0.0012744597531833 Mg
   0.8311144291755774    0.8526691802844910   -0.0257504178751334 Mg
   0.1530145404149177   -0.0212825415816922    0.1689673660272091 Mg
   0.3449273155869943    0.1639995714722733    0.1826392398522280 Mg
   0.4971778626016726    0.3277820219085884    0.1906649943643070 Mg
   0.6898723238575356    0.4947770269509306    0.1591749977404351 Mg
   0.8154905019657620    0.6685480754345123    0.1675580249906672 Mg
   0.3585602679027274    0.0057873774737557    0.3378405402314041 Mg
   0.4972862156829957    0.1702024327014667    0.3222429917805648 Mg
   0.6834202223086937    0.3225855586485535    0.3211457475593781 Mg
   0.8513689474132328    0.5331299655412731    0.3325063557607371 Mg
   0.4903773297186922   -0.0085199451134032    0.4817819716595271 Mg
   0.6707386764669915    0.1910640465105352    0.5067854495293069 Mg
   0.8252753323765241    0.3234407200832205    0.4993825596589438 Mg
   0.6512499944910141    0.0313670643217960    0.6574309165378314 Mg
   0.8376949597660532    0.1608161184371962    0.6686582882475112 Mg
   0.8592099774763782    0.0268889092755469    0.8373001715003190 Mg
   0.0060956891706277    0.3316255002306811    1.0185864981926600 Mg
   0.1508042124797859    0.4787750610133518   -0.0023775739056500 Mg
   0.3336752099544231    0.6551342599613553    0.9706265133283840 Mg
   0.5297388877334863    0.8356114079914928    0.0069564723677941 Mg
  -0.0063217348849572    0.1861046371725575    0.1430142164885285 Mg
   0.1858252672337779    0.3336308792139063    0.1878100533742249 Mg
   0.3051563034572024    0.4976129592804068    0.1777106486800505 Mg
   0.4840976284214337    0.6734940237077416    0.1702297167056124 Mg
   0.6888505609912923    0.8412672497618988    0.1626148239893992 Mg
   1.0142295438676332    1.0089640246802756    0.3473216130490852 Mg
   0.1681214056782890    0.1669592277093713    0.3553372646924677 Mg
   0.3266600572574787    0.3352861511186662    0.3142701445967848 Mg
   0.4766869840652192    0.4929148127137131    0.3464722927648837 Mg
   0.6705440379658355    0.6571374446859033    0.3394508626544821 Mg
   0.8108902352426860    0.8179178868568184    0.3256906398294560 Mg
   0.1656669541375944    0.0139483305678256    0.4853055389554256 Mg
   0.3636540733287367    0.1500844059446401    0.4864977942372067 Mg
   0.4934986774640269    0.3231046597206736    0.5083677106723484 Mg
   0.6605627286028838    0.4996054309255323    0.5157560172556248 Mg
   0.8216583469725486    0.6813629931926581    0.4874396369018775 Mg
   0.3236201951550381    0.9956817906945582    0.6665546837115003 Mg
   0.5043876152826533    0.1452407200102276    0.6893519075401593 Mg
   0.6563641463178558    0.3308008191110689    0.6774883875240044 Mg
   0.8270489211129338    0.4839818009785166    0.6464997602640309 Mg
   0.4920186571765441   -0.0289579561783383    0.8314096915347581 Mg
   0.6803432332728049    0.1577280833736852    0.8331082931369371 Mg
   0.8568534052344984    0.3300342236568820    0.8309533921922611 Mg
   0.0027902360325113    0.6793406952292588    0.9933791612196463 Mg
   0.1813088969749682    0.8225247451923162    0.0082509680442666 Mg
   0.0019829753037961    0.5053810976638207    0.1700210855013156 Mg
   0.1637725580501703    0.6849997121914836    0.1857639180987205 Mg
   0.3453688269193383    0.8047109091306266    0.1803434872045624 Mg
  -0.0095045650352424    0.3258401224378006    0.3263446404740691 Mg
   0.1576659007971512    0.4773712584508037    0.3496186305079120 Mg
   0.3321251428217613    0.6815737775708400    0.3374054088993669 Mg
   0.5033167573732659    0.8553724689348331    0.3321991183076258 Mg
  -0.0150506262395802    0.1694433978466337    0.5115116695531021 Mg
   0.1620020304727827    0.3350983802030413    0.5113755117129686 Mg
   0.3155201093505370    0.4878846894179180    0.4957099566914476 Mg
   0.5090994251276327    0.6683742113859695    0.5231178015171739 Mg
   0.6719154257257993    0.8257765426881705    0.4962515522232244 Mg
   1.0162252996361811    0.9970860246057754    0.6710706773118087 Mg
   0.1498580478117258    0.1536670201172231    0.6590578835076408 Mg
   0.3342469605336067    0.3376529255130175    0.6458228331740824 Mg
   0.5141587093244316    0.5383652795242416    0.6585812122779239 Mg
   0.6620350485768071    0.6753069990083480    0.6821457320955348 Mg
   0.8452623947250903    0.8390402426272584    0.6668305243343300 Mg
   0.1798618300009823   -0.0003390382058431    0.8284669974747613 Mg
   0.3423261272492983    0.1594896641941622    0.8192574044286249 Mg
   0.4882739385641560    0.3338109410478116    0.8400250043128900 Mg
   0.6673454069525347    0.4795081045550827    0.8377236399747331 Mg
   0.8403493704410895    0.6551065171153370    0.8094700863447744 Mg
   0.9970044296510362    0.8405843414158150    0.1491254867122706 Mg
  -0.0146788113575446    0.6555815597430755    0.3158347737712268 Mg
   0.1719300333962464    0.8174048852475565    0.3432076146138990 Mg
   0.0142497111330936    0.4805719571106425    0.4839008584108344 Mg
   0.1731930412211950    0.6944526072652049    0.4867805214433010 Mg
   0.3642611547882306    0.8683099316211456    0.4802456527121126 Mg
   1.0303698516029840    0.3234048784091630    0.6842736557880875 Mg
   0.1834989788603320    0.5039397232875852    0.6662290242015491 Mg
   0.3319171649080389    0.6592213025709631    0.6635261621365091 Mg
   0.5207027197692928    0.8067451784039095    0.6704137127352897 Mg
  -0.0124404391483511    0.1598084752294575    0.8382754361785599 Mg
   0.1964902282218944    0.3451727696935412    0.8402715069570902 Mg
   0.3217591192359777    0.4948486973408655    0.7995172523055806 Mg
   0.4782693619241365    0.6603181208144348    0.8384968344843632 Mg
   0.6787401275732590    0.8333378683093751    0.8323693711756543 Mg
   0.9995551393141369    0.8064546038777137    0.4816681506073755 Mg
   0.0268760518327853    0.6586929650231164    0.6647564335073961 Mg
   0.1657411466087608    0.8184993042650153    0.6704091960629153 Mg
   0.0020067308164736    0.4838703710840466    0.8285162756589058 Mg
   0.1758763457044200    0.6689844252376341    0.8288159668330383 Mg
   0.3032551065866357    0.8069507160445613    0.8024042066203705 Mg
   0.0037873078340327    0.8310250317800706    0.8352604230377290 Mg
   0.5014483414577205    0.4840410241482763    0.4856482108086533 Mg
   0.8333333333333333    0.1666666666666667    0.2500032143270414 O
   0.0025742263272722    0.3456761113469488    0.1737904226256335 O
  -0.0109320676017893    0.1592527847500210    0.3037994260193755 O
   0.4791216840582341    0.1756319580026550    0.1582069388621634 O
   0.6389223935654351    0.3108654276381433    0.1495692911910547 O
   0.8213629759069965    0.4757392046401638    0.1544555099642475 O
  -0.0080252082411569    0.7017785097801269    0.1449216108701521 O
   0.6686433216383946    0.1905665179307142    0.3261088340126495 O
   0.8106955424333048    0.3673892248991641    0.3306236068770861 O
  -0.0010211458248854    0.4969173358066186    0.3317873446576994 O
   0.8379716771177814    0.1379609603499332    0.5058198154307232 O
   0.0058491830335557    0.3276300975386415    0.5218057866536319 O
  -0.0045744332829022    0.1688245043606334    0.6657414097922558 O
   0.1843880698807661    0.1559586326240384    0.1664610147320222 O
   0.3362178685805388    0.3563359485390267    0.1731332257900523 O
   0.4526726601652900    0.5039407733924393    0.1593968705002617 O
   0.6308298091930643    0.6774828325255644    0.1573067835251192 O
   0.8230497805693040    0.8460939653471388    0.1804025775929232 O
   0.0152292068732903   -0.0312923944739705    0.1643639740403459 O
   0.3424231025993352    0.1485643368414287    0.3481890893285459 O
   0.4731840575581756    0.3352796147151436    0.3361853854381223 O
   0.6454714047578642    0.5199154321297146    0.3552492777768013 O
   0.8421770169490582    0.6821437575597635    0.3229918342157337 O
   0.0049313848463732    0.8145279128844606    0.3227594510852443 O
   0.5094317856950469    0.1538827019706040    0.4904189798154054 O
   0.6530624841045974    0.3101625742080362    0.4980998967538290 O
   0.8456569251882975    0.4914510236941917    0.5081604982295942 O
   0.0023246739169849    0.6516437750107832    0.5012081598831389 O
   0.6499072678822622    0.1685740870761268    0.6553309636509955 O
   0.8165881580320393    0.3244447375904410    0.6508530315913171 O
  -0.0158486423139221    0.4870740107927793    0.6771695333094475 O
   0.8405154683793860    0.1625225913960813    0.8253901357649189 O
  -0.0097345181237853    0.3339750355679880    0.8206981925111212 O
   0.0142915749666594    0.1528375614796295   -0.0234095835711256 O
   0.1536233959648142    0.4843536693268095    0.1793941305731390 O
   0.3229595618478491    0.6530301254962513    0.1307915195273325 O
   0.4953356297899550    0.8276013622171458    0.1731557657232357 O
   0.7057881191874672    0.0055003471197979    0.1952039900715372 O
   0.1594820909345972    0.3099532304409703    0.3359855766420664 O
   0.3339913706964756    0.5338394650395240    0.3303896141146354 O
   0.5149826377188466    0.6606915611133087    0.3280543649101743 O
   0.6744262854692517    0.8382630747256689    0.3260465983732249 O
   0.8400839952537797    0.0031190557379881    0.3311330846370922 O
   0.1872524579575233    0.2021202287703490    0.5095241353697836 O
   0.3484888679073621    0.3230960053032238    0.4941044893681259 O
   0.6707520948412502    0.6456991307263891    0.5253741416424011 O
   0.8360535633113406    0.8592881895438660    0.4740740956362203 O
   0.0014683643628670   -0.0006648999566899    0.5214375471015691 O
   0.3370908466216059    0.1675063037567284    0.6697872421871428 O
   0.5181106622695769    0.3525224157872258    0.6419597610336470 O
   0.6524307453242207    0.4663873568892812    0.6608617549034039 O
   0.8159859098906619    0.6506004457156721    0.6638216116967619 O
   0.0115861612030170    0.8138559087850311    0.6560443364009629 O
   0.5009887839573081    0.1596491283401968    0.8530797803974838 O
   0.6652785669891492    0.3258093783466161    0.8419218545315182 O
   0.8502283019937666    0.5147579848763044    0.8438711419503747 O
   0.0121520191142761    0.6437744530431765    0.8258295283319493 O
   0.6609329848865082    0.1785980807109512   -0.0062924101316460 O
   0.8304342296393945    0.3384938023066205    0.0099097544383024 O
   0.0159063092412629    0.5135808005239570   -0.0043608583684778 O
   0.1710482868602175    0.8299097230610594    0.1716963798236146 O
   0.3085268282673596   -0.0120958072271524    0.1319574990517509 O
   0.1655958034597340    0.6725321714834536    0.3381402865449700 O
   0.3519740159290962    0.8347509556507511    0.3497033078852267 O
   0.5049876427891899    0.0139682893710335    0.3259813006806169 O
   0.1853028115011902    0.5239947116737724    0.5120933804889606 O
   0.3268567026942144    0.6488271485842987    0.4815786716013731 O
   0.4916131213611947    0.8295898131156855    0.4667062558551399 O
   0.6602528752206418   -0.0298211233454505    0.5015837878864076 O
   0.1636158642118603    0.3256967299942577    0.6747266965537455 O
   0.3372296872884776    0.4964497494409947    0.6627047412844216 O
   0.5008444518378623    0.6726707979410321    0.6758578995766381 O
   0.6663577480869380    0.8356473664639694    0.6888859566428470 O
   0.8501695350677656    0.0191613673471923    0.6946863595011218 O
   0.1964024058228788    0.1560352075382878    0.8448860260774467 O
   0.3514813891136357    0.3273695361134809    0.8448680919471165 O
   0.5021179842192210    0.4952044751010679    0.8239435185650261 O
   0.6579553440919776    0.6450936431387838    0.8520720765722273 O
   0.8365511876764993    0.8542246512085511    0.8140001233675614 O
  -0.0052348755081887    0.0067957798007598    0.8522657466407217 O
   0.3135287747543632    0.1786767526564272    0.0126700024281436 O
   0.4927111569245428    0.3182223309166966    0.0236087225694277 O
   0.6678855764446486    0.4974857969755156   -0.0134107025345036 O
   0.8142852528602668    0.6601609578359902    0.0193715171885258 O
  -0.0092133198044483    0.8201249469318245   -0.0219347064909353 O
   0.1693754953318032   -0.0147728775824914    0.3521340634963067 O
   0.1779308762491253    0.8478863681408709    0.5186860733879517 O
   0.3407970395028296    0.0154106669263103    0.4845341979533211 O
   0.1901328295222478    0.6749799167301754    0.6458660335014766 O
   0.3740960784914862    0.8378842882211389    0.6745961241752619 O
   0.5050249086348573   -0.0006752883420117    0.6712536646308833 O
   0.1723872485463228    0.5239127848865885    0.8243791709581837 O
   0.3142756755863806    0.6449080794736342    0.8225660713779115 O
   0.5063678194070966    0.8193691299826636    0.8665407698415107 O
   0.6406258113668327   -0.0075764445335460    0.8358635141327496 O
   0.1571818965010997    0.3228813440379365    0.0089448101436227 O
   0.3541707682905235    0.5015469128340208   -0.0095936415088693 O
   0.4890503953920680    0.6639881127444727    0.0086540946670173 O
   0.6776320920432103    0.8296741509611234    0.0105531188370469 O
   0.8225822845181898    0.0326786500547563   -0.0159733136834592 O
   0.1719803996632382    0.0156628135956854    0.6741991723309404 O
   0.1501313375431543    0.8496578416300082    0.8145717590383268 O
   0.3215858702537499   -0.0107849471645871    0.8033256660141671 O
   0.1623708194480072    0.6390016081361668   -0.0147651099913371 O
   0.3311649106808335    0.8124242259849812   -0.0084890502359925 O
   0.5196096019969251   -0.0144522597899658    0.0058018655492464 O
   0.1614296967259566    0.0002054231463174    0.0275070374919724 O
