v_Te ~[0.3750,0.3750,0.6250] +2
1.0
  13.0813199999999998    0.0000000000000000    0.0000000000000000
   0.0000000000000000   13.0813199999999998    0.0000000000000000
   0.0000000000000000    0.0000000000000000   13.0813199999999998
Cd Te
32 31
direct
   0.5000000000000000    0.0000000000000000    0.0000000000000000 Cd
   0.7500000000000001    0.2500000000000000    0.0000000000000000 Cd
   0.7500000000000001    0.0000000000000000    0.2500000000000000 Cd
   0.0000000000000000    0.0000000000000000    0.0000000000000000 Cd
   0.2500000000000000    0.2500000000000000    0.0000000000000000 Cd
   0.5000000000000000    0.5000000000000000    0.0000000000000000 Cd
   0.7500000000000001    0.7500000000000001    0.0000000000000000 Cd
   0.2500000000000000    0.0000000000000000    0.2500000000000000 Cd
   0.5000000000000000    0.2500000000000000    0.2500000000000000 Cd
   0.7500000000000001    0.5000000000000000    0.2500000000000000 Cd
   0.5000000000000000    0.0000000000000000    0.5000000000000000 Cd
   0.7500000000000001    0.2500000000000000    0.5000000000000000 Cd
   0.7500000000000001    0.0000000000000000    0.7500000000000001 Cd
   0.0000000000000000    0.5000000000000000    0.0000000000000000 Cd
   0.2500000000000000    0.7500000000000001    0.0000000000000000 Cd
   0.0000000000000000    0.2500000000000000    0.2500000000000000 Cd
   0.2500000000000000    0.5000000000000000    0.2500000000000000 Cd
   0.5000000000000000    0.7500000000000001    0.2500000000000000 Cd
   0.0000000000000000    0.0000000000000000    0.5000000000000000 Cd
   0.2500000000000000    0.2500000000000000    0.5000000000000000 Cd
   0.5000000000000000    0.5000000000000000    0.5000000000000000 Cd
   0.7500000000000001    0.7500000000000001    0.5000000000000000 Cd
   0.2500000000000000    0.0000000000000000    0.7500000000000001 Cd
   0.5000000000000000    0.2500000000000000    0.7500000000000001 Cd
   0.7500000000000001    0.5000000000000000    0.7500000000000001 Cd
   0.0000000000000000    0.7500000000000001    0.2500000000000000 Cd
   0.0000000000000000    0.5000000000000000    0.5000000000000000 Cd
   0.2500000000000000    0.7500000000000001    0.5000000000000000 Cd
   0.0000000000000000    0.2500000000000000    0.7500000000000001 Cd
   0.2500000000000000    0.5000000000000000    0.7500000000000001 Cd
   0.5000000000000000    0.7500000000000001    0.7500000000000001 Cd
   0.0000000000000000    0.7500000000000001    0.7500000000000001 Cd
   0.6250000000000000    0.1250000000000000    0.1250000000000000 Te
   0.8750000000000001    0.3750000000000001    0.1250000000000000 Te
   0.8750000000000001    0.1250000000000000    0.3750000000000001 Te
   0.1250000000000000    0.1250000000000000    0.1250000000000000 Te
   0.3750000000000001    0.3750000000000001    0.1250000000000000 Te
   0.6250000000000000    0.6250000000000000    0.1250000000000000 Te
   0.8750000000000001    0.8750000000000001    0.1250000000000000 Te
   0.3750000000000001    0.1250000000000000    0.3750000000000001 Te
   0.6250000000000000    0.3750000000000001    0.3750000000000001 Te
   0.8750000000000001    0.6250000000000000    0.3750000000000001 Te
   0.6250000000000000    0.1250000000000000    0.6250000000000000 Te
   0.8750000000000001    0.3750000000000001    0.6250000000000000 Te
   0.8750000000000001    0.1250000000000000    0.8750000000000001 Te
   0.1250000000000000    0.6250000000000000    0.1250000000000000 Te
   0.3750000000000001    0.8750000000000001    0.1250000000000000 Te
   0.1250000000000000    0.3750000000000001    0.3750000000000001 Te
   0.3750000000000001    0.6250000000000000    0.3750000000000001 Te
   0.6250000000000000    0.8750000000000001    0.3750000000000001 Te
   0.1250000000000000    0.1250000000000000    0.6250000000000000 Te
   0.6250000000000000    0.6250000000000000    0.6250000000000000 Te
   0.8750000000000001    0.8750000000000001    0.6250000000000000 Te
   0.3750000000000001    0.1250000000000000    0.8750000000000001 Te
   0.6250000000000000    0.3750000000000001    0.8750000000000001 Te
   0.8750000000000001    0.6250000000000000    0.8750000000000001 Te
   0.1250000000000000    0.8750000000000001    0.3750000000000001 Te
   0.1250000000000000    0.6250000000000000    0.6250000000000000 Te
   0.3750000000000001    0.8750000000000001    0.6250000000000000 Te
   0.1250000000000000    0.3750000000000001    0.8750000000000001 Te
   0.3750000000000001    0.6250000000000000    0.8750000000000001 Te
   0.6250000000000000    0.8750000000000001    0.8750000000000001 Te
   0.1250000000000000    0.8750000000000001    0.8750000000000001 Te
