Unperturbed N(Distort)=1 ~[0.5,0.5,0.5] 
   1.00000000000000     
    12.5998379999999983    0.0000000000000004    0.0000000000000004
     0.0000000000000004   12.5998379999999983   -0.0000000000000004
    -0.0000000000000004   -0.0000000000000004   12.5998379999999983
   Mg   O 
   109   107
Direct
  0.6672003483209126 -0.0000000000769303 -0.0000000367145638
  0.8335843881690546  0.1664156095164238 -0.0000000013134570
  0.8335843889637634  0.0000000086006688  0.1664155693265094
  0.3327996522837482  0.0000000036511753  0.0000000381675058
  0.4999999991234813  0.1655638231652425  0.0000000379694530
  0.6672911172475926  0.3327088954749405  0.0000000012099446
  0.8344361958866477  0.5000000016486933 -0.0000000354043366
  0.5000000008693132  0.0000000015527012  0.1655637721113963
  0.6673213587168402  0.1663675996476734  0.1663675878192133
  0.8336324147656744  0.3326786446960892  0.1663675859575043
  0.6672911115974032  0.0000000061579217  0.3327088340949839
  0.8336324140897835  0.1663676008181724  0.3326786436608153
  0.8344362049339835  0.0000000049106158  0.4999999592630640
  0.0000000011013171  0.0000000015446059  0.0000000005113885
  0.1664156159788282  0.1664156118532975  0.0000000796010197
  0.3327088970259486  0.3327088992626327  0.0000000921029235
  0.5000000057137556  0.5000000007399116  0.0000000051737744
  0.6672911102454085  0.6672911004561739 -0.0000000900873870
  0.8335843891362466  0.8335843901575639 -0.0000000794370439
  0.1664156108482240 -0.0000000009164019  0.1664156478045279
  0.3326786412845545  0.1663675994839449  0.1663676858339963
  0.5000000015801147  0.3303869445655005  0.1624922805617889
  0.6696130641108137  0.5000000090230421  0.1624922204363438
  0.8336324034007815  0.6673213542944896  0.1663674864114039
  0.3327088793276664  0.0000000018252080  0.3327089162046963
  0.4999999944031546  0.1624922486813817  0.3303869368064448
  0.6668201647042852  0.3331798495532801  0.3331798323400207
  0.8375077522774592  0.4999999926166397  0.3303868813369777
  0.4999999909195298  0.0000000083620353  0.5000000010264997
  0.6696130620293612  0.1624922418892218  0.4999999885927731
  0.8375077700108250  0.3303869373885367  0.5000000106197020
  0.6672911142786463 -0.0000000000419999  0.6672910835913932
  0.8336324042275944  0.1663675926308713  0.6673213534908399
  0.8335843888982909  0.0000000013215280  0.8335843512768462
  0.0000000052326697  0.3327996511860070  0.0000000318071921
  0.1655638109944338  0.4999999965346008  0.0000000383011143
  0.3327088888770161  0.6672911028742479  0.0000000004269903
  0.5000000031555830  0.8344361782795201 -0.0000000359736715
  0.0000000023927449  0.1664156065630754  0.1664156462805352
  0.1663675980925949  0.3326786398392297  0.1663676840251384
  0.3303869429344439  0.4999999996876763  0.1624922841025105
  0.5000000077221300  0.6696130576319447  0.1624922178232316
  0.6673213502958733  0.8336323967686651  0.1663674842642359
 -0.0000000017131008 -0.0000000001907546  0.3327996478415657
  0.1663675918645779  0.1663675972489665  0.3326787530787891
  0.3331798402134237  0.3331798441114993  0.3331799010018646
  0.5000000016642858  0.4999999875661169  0.3058731598828944
  0.6668201454284451  0.6668201396638154  0.3331797582098598
  0.8336324080883585  0.8336324065748236  0.3326785417206147
  0.1655637850453066 -0.0000000051241160  0.5000000394722300
  0.3303869331685242  0.1624922413586260  0.5000000922337685
  0.5000000085039273  0.3058731920648485  0.4999999754858323
  0.6941268415139163  0.4999999824870510  0.5000000087361474
  0.8375077628256372  0.6696130629830399  0.4999999087728353
  0.3327088807546442 -0.0000000044421252  0.6672911685136265
  0.5000000034395553  0.1624922515911545  0.6696131218449688
  0.6668201590974296  0.3331798454914984  0.6668201626457673
  0.8375077608131607  0.5000000022646925  0.6696130542967156
  0.4999999950347820  0.0000000026111296  0.8344362304108295
  0.6673213541945709  0.1663675984694475  0.8336324129734812
  0.8336324090589489  0.3326786367689172  0.8336324083525963
  0.0000000017367715  0.6672003462004718 -0.0000000309678461
  0.1664156150262822  0.8335843895024369  0.0000000011020716
  0.0000000015027229  0.4999999976202254  0.1655637687304310
  0.1663675941415215  0.6673213596370660  0.1663675910871919
  0.3326786459089692  0.8336324009859994  0.1663675879867690
  0.0000000080275476  0.3327088854175256  0.3327089147527875
  0.1624922402496364  0.4999999958678715  0.3303869390784603
  0.3331798404334068  0.6668201521678006  0.3331798342742369
  0.4999999911972603  0.8375077583392088  0.3303868760525202
 -0.0000000037808732  0.1655638002576576  0.5000000387593847
  0.1624922348106563  0.3303869350377375  0.5000000880675481
  0.3058731484620572  0.4999999941950983  0.4999999732766292
  0.4999999938337084  0.6941268679769403  0.5000000048964730
  0.6696130640851442  0.8375077695388216  0.4999999073919854
 -0.0000000040535187 -0.0000000002321014  0.6672003507793725
  0.1663675902189413  0.1663675938061291  0.6673214590563876
  0.3331798549415430  0.3331798574839273  0.6668202395941220
  0.5000000013021164  0.4999999894580022  0.6941268844838697
  0.6668201616520522  0.6668201513831900  0.6668200957510577
  0.8336324079499738  0.8336324021454526  0.6673212438209714
  0.1664156097731216 -0.0000000074392871  0.8335844335279217
  0.3326786500325100  0.1663676046821660  0.8336325172245173
  0.4999999952977806  0.3303869395475013  0.8375077889112892
  0.6696130621109955  0.4999999988629831  0.8375077197380622
  0.8336324068438925  0.6673213590390430  0.8336323142427070
  0.0000000100355859  0.8335843906189736  0.1664155736204567
  0.0000000033096979  0.6672911062282647  0.3327088376125118
  0.1663675939114569  0.8336324044492649  0.3326786442094183
 -0.0000000035142465  0.4999999995317016  0.4999999986544329
  0.1624922257322263  0.6696130574189770  0.4999999860019846
  0.3303869306770921  0.8375077633310398  0.5000000108816776
 -0.0000000035952211  0.3327088923480934  0.6672911604022774
  0.1624922477780929  0.5000000061988110  0.6696131185872459
  0.3331798347474726  0.6668201472202199  0.6668201652297244
  0.5000000013045427  0.8375077594896007  0.6696130614817489
 -0.0000000082206251  0.1664156088900613  0.8335844267902410
  0.1663676002073138  0.3326786448991490  0.8336325149206989
  0.3303869385296035  0.4999999904683843  0.8375077889912057
  0.5000000012990312  0.6696130522683976  0.8375077262467949
  0.6673213619259125  0.8336323994496548  0.8336323139309278
 -0.0000000001440240  0.8344361986686858  0.4999999578870529
 -0.0000000074747242  0.6672911126715154  0.6672910817408385
  0.1663675838537701  0.8336323957481607  0.6673213563455170
  0.0000000025522105  0.5000000002413157  0.8344362312588095
  0.1663675889388766  0.6673213533667343  0.8336324142973411
  0.3326786400346796  0.8336323989570797  0.8336324120622907
  0.0000000004087434  0.8335843932474559  0.8335843527885580
  0.4999999901799764  0.5000000689294860  0.5000000518932997
  0.8328669701313861  0.1671330515063891  0.1671330638439675
  0.0000000100638625  0.3335797186655086  0.1670167439227150
 -0.0000000063614912  0.1670166834786859  0.3335797616935895
  0.4999999893442912  0.1672474433659381  0.1672474473785593
  0.6654661152884128  0.3345339061099161  0.1678210148563685
  0.8327525663559671  0.4999999872419445  0.1672473437558124
  0.0000000068122852  0.6664202821422551  0.1670166154148508
  0.6654660895239491  0.1678210383432677  0.3345339174835968
  0.8321789597070340  0.3345339487164841  0.3345339529560339
 -0.0000000103513910  0.5000000171539406  0.3323120118681236
  0.8327525664551456  0.1672474426695089  0.4999999992652206
  0.0000000093686546  0.3323119957400170  0.4999999768678028
 -0.0000000069025402  0.1670166945024605  0.6664203656845472
  0.1671330386285438  0.1671330396541811  0.1671332108045585
  0.3345338932848083  0.3345338979804884  0.1678212460485708
  0.5000000048506903  0.5000000050362441  0.1579117955508019
  0.6654660976191754  0.6654660900142411  0.1678208056394913
  0.8328669650391088  0.8328669613300066  0.1671329174438796
  0.0000000014747346  0.0000000003456838  0.1668209547821786
  0.3345338956312382  0.1678210279168855  0.3345341403773726
  0.5000000317843492  0.3385503176714563  0.3385503040951865
  0.6614496762001023  0.5000000103275765  0.3385503885994546
  0.8321789449548096  0.6654660594621654  0.3345337215387812
  0.0000000075424178  0.8329833039319909  0.3335796318441210
  0.4999999984513385  0.1579116826237236  0.4999999559056127
  0.6614495144641550  0.3385504733973626  0.4999999976065054
  0.8420883168750746  0.4999999959584945  0.5000000560615457
 -0.0000000090553242  0.6676880018261697  0.5000000220259514
  0.6654660564353514  0.1678210541968494  0.6654660492455723
  0.8321789573084933  0.3345339040112494  0.6654660815611775
  0.0000000119057348  0.4999999826797764  0.6676879856118821
  0.8328669512194716  0.1671330334085312  0.8328669396021030
 -0.0000000047253655  0.3335797168834239  0.8329833832396071
 -0.0000000136776803  0.1668209394404527  0.0000000474235189
  0.1672474416145117  0.4999999918779457  0.1672474564780942
  0.3345338992956065  0.6654661080728833  0.1678210264744072
  0.4999999844976620  0.8327525547662812  0.1672473378758193
  0.6664203117211717  0.0000000046161575  0.1670166066094295
  0.1678210208892771  0.3345338991418637  0.3345341423162946
  0.3385503274242365  0.5000000304174549  0.3385503067875514
  0.5000000105268769  0.6614496630752909  0.3385504142686123
  0.6654660609187955  0.8321789479260182  0.3345337240905958
  0.8329833247678986  0.0000000064883682  0.3335796154106713
  0.1672474558040440  0.1672474721475635  0.5000001726264444
  0.3385504892955501  0.3385504811259268  0.4999999982781182
  0.6614494904930174  0.6614495097023659  0.4999999984116247
  0.8327525370073061  0.8327525276644383  0.4999998267200275
 -0.0000000004050134 -0.0000000013566076  0.4999999997271267
  0.3345339329196013  0.1678210514974356  0.6654662772943422
  0.4999999883488093  0.3385503397190733  0.6614495923808990
  0.6614496606883977  0.4999999673750019  0.6614496835015234
  0.8321789787525039  0.6654660991860035  0.6654658563202939
  0.0000000086636021  0.8329833144554831  0.6664202371161103
  0.5000000139244659  0.1672474457343867  0.8327526630097356
  0.6654661024065016  0.3345338931650270  0.8321789724855895
  0.8327525623074566  0.5000000068785222  0.8327525426474982
 -0.0000000067410636  0.6664202798857197  0.8329832553826358
  0.6664203343564503  0.1670166819535992  0.0000000119993911
  0.8329833381416976  0.3335796855641699 -0.0000000161641810
  0.0000000028040860  0.5000000000127341 -0.0000000007189342
  0.1671330501783388  0.8328669642925318  0.1671330594363666
  0.3335796911890554  0.0000000010847293  0.1670167344667949
  0.1678210438000650  0.6654660957544944  0.3345339188019229
  0.3345339402949665  0.8321789448345929  0.3345339538089312
  0.5000000147400347 -0.0000000143252655  0.3323120167402801
  0.1579116819379612  0.5000000055069643  0.4999999437776078
  0.3385505055487441  0.6614495069315026  0.4999999992806395
  0.4999999879956605  0.8420883331553672  0.5000000468736611
  0.6676880132219346 -0.0000000043158482  0.5000000246722309
  0.1678210552143845  0.3345339412135724  0.6654662767733025
  0.3385503383583163  0.4999999879528350  0.6614495977091548
  0.4999999676828932  0.6614496524014956  0.6614496639070624
  0.6654660978061587  0.8321789681780064  0.6654658584244872
  0.8329833374775123  0.0000000111771519  0.6664202462681617
  0.1671330369491906  0.1671330372268857  0.8328670812229935
  0.3345339045699051  0.3345339120749362  0.8321791930041885
  0.5000000006109749  0.4999999983797950  0.8420882178140217
  0.6654661077063644  0.6654661006843293  0.8321787528599186
  0.8328669637723785  0.8328669587495149  0.8328667896374925
 -0.0000000002527000 -0.0000000012714250  0.8331790443912024
  0.3335796476405828  0.1670166518005614  0.0000001389775447
  0.5000000068687765  0.3323121067893580 -0.0000000147641099
  0.6676879051291001  0.4999999950928676  0.0000000165421922
  0.8329833622828450  0.6664203347385398 -0.0000001410988545
  0.0000000179380532  0.8331790591823915 -0.0000000479658406
  0.1670166593245953 -0.0000000135561809  0.3335797528559838
  0.1672474324311204  0.8327525519476656  0.4999999990324480
  0.3323119861461287  0.0000000093698538  0.4999999777364083
  0.1678210419657319  0.6654660494505545  0.6654660441988901
  0.3345339098184087  0.8321789586045953  0.6654660800833687
  0.4999999718450093  0.0000000195848818  0.6676879828536764
  0.1672474393899926  0.5000000128525965  0.8327526535581640
  0.3345338895973243  0.6654660923894994  0.8321789825268487
  0.5000000089874235  0.8327525521065106  0.8327525492844331
  0.6664203078417777 -0.0000000023669323  0.8329832656392475
  0.1670166427632717  0.3335796650129265  0.0000001407477419
  0.3323120964387944  0.5000000070574643 -0.0000000113350217
  0.4999999990702794  0.6676878920222966  0.0000000199383727
  0.6664203548162321  0.8329833483595022 -0.0000001397619666
  0.8331790538990137  0.0000000152278065 -0.0000000537840200
  0.1670166722037410 -0.0000000077913065  0.6664203836175567
  0.1671330316875927  0.8328669465189034  0.8328669354741419
  0.3335796862083519 -0.0000000057094109  0.8329833945403721
  0.1670166672414092  0.6664203128141835  0.0000000157164474
  0.3335796670489259  0.8329833155564447 -0.0000000131234874
  0.5000000000860865 -0.0000000008560665 -0.0000000008439850
  0.1668209471104997 -0.0000000161533916  0.0000000538216433
 
  0.00000000E+00  0.00000000E+00  0.00000000E+00
  0.00000000E+00  0.00000000E+00  0.00000000E+00
  0.00000000E+00  0.00000000E+00  0.00000000E+00
  0.00000000E+00  0.00000000E+00  0.00000000E+00
  0.00000000E+00  0.00000000E+00  0.00000000E+00
  0.00000000E+00  0.00000000E+00  0.00000000E+00
  0.00000000E+00  0.00000000E+00  0.00000000E+00
  0.00000000E+00  0.00000000E+00  0.00000000E+00
  0.00000000E+00  0.00000000E+00  0.00000000E+00
  0.00000000E+00  0.00000000E+00  0.00000000E+00
  0.00000000E+00  0.00000000E+00  0.00000000E+00
  0.00000000E+00  0.00000000E+00  0.00000000E+00
  0.00000000E+00  0.00000000E+00  0.00000000E+00
  0.00000000E+00  0.00000000E+00  0.00000000E+00
  0.00000000E+00  0.00000000E+00  0.00000000E+00
  0.00000000E+00  0.00000000E+00  0.00000000E+00
  0.00000000E+00  0.00000000E+00  0.00000000E+00
  0.00000000E+00  0.00000000E+00  0.00000000E+00
  0.00000000E+00  0.00000000E+00  0.00000000E+00
  0.00000000E+00  0.00000000E+00  0.00000000E+00
  0.00000000E+00  0.00000000E+00  0.00000000E+00
  0.00000000E+00  0.00000000E+00  0.00000000E+00
  0.00000000E+00  0.00000000E+00  0.00000000E+00
  0.00000000E+00  0.00000000E+00  0.00000000E+00
  0.00000000E+00  0.00000000E+00  0.00000000E+00
  0.00000000E+00  0.00000000E+00  0.00000000E+00
  0.00000000E+00  0.00000000E+00  0.00000000E+00
  0.00000000E+00  0.00000000E+00  0.00000000E+00
  0.00000000E+00  0.00000000E+00  0.00000000E+00
  0.00000000E+00  0.00000000E+00  0.00000000E+00
  0.00000000E+00  0.00000000E+00  0.00000000E+00
  0.00000000E+00  0.00000000E+00  0.00000000E+00
  0.00000000E+00  0.00000000E+00  0.00000000E+00
  0.00000000E+00  0.00000000E+00  0.00000000E+00
  0.00000000E+00  0.00000000E+00  0.00000000E+00
  0.00000000E+00  0.00000000E+00  0.00000000E+00
  0.00000000E+00  0.00000000E+00  0.00000000E+00
  0.00000000E+00  0.00000000E+00  0.00000000E+00
  0.00000000E+00  0.00000000E+00  0.00000000E+00
  0.00000000E+00  0.00000000E+00  0.00000000E+00
  0.00000000E+00  0.00000000E+00  0.00000000E+00
  0.00000000E+00  0.00000000E+00  0.00000000E+00
  0.00000000E+00  0.00000000E+00  0.00000000E+00
  0.00000000E+00  0.00000000E+00  0.00000000E+00
  0.00000000E+00  0.00000000E+00  0.00000000E+00
  0.00000000E+00  0.00000000E+00  0.00000000E+00
  0.00000000E+00  0.00000000E+00  0.00000000E+00
  0.00000000E+00  0.00000000E+00  0.00000000E+00
  0.00000000E+00  0.00000000E+00  0.00000000E+00
  0.00000000E+00  0.00000000E+00  0.00000000E+00
  0.00000000E+00  0.00000000E+00  0.00000000E+00
  0.00000000E+00  0.00000000E+00  0.00000000E+00
  0.00000000E+00  0.00000000E+00  0.00000000E+00
  0.00000000E+00  0.00000000E+00  0.00000000E+00
  0.00000000E+00  0.00000000E+00  0.00000000E+00
  0.00000000E+00  0.00000000E+00  0.00000000E+00
  0.00000000E+00  0.00000000E+00  0.00000000E+00
  0.00000000E+00  0.00000000E+00  0.00000000E+00
  0.00000000E+00  0.00000000E+00  0.00000000E+00
  0.00000000E+00  0.00000000E+00  0.00000000E+00
  0.00000000E+00  0.00000000E+00  0.00000000E+00
  0.00000000E+00  0.00000000E+00  0.00000000E+00
  0.00000000E+00  0.00000000E+00  0.00000000E+00
  0.00000000E+00  0.00000000E+00  0.00000000E+00
  0.00000000E+00  0.00000000E+00  0.00000000E+00
  0.00000000E+00  0.00000000E+00  0.00000000E+00
  0.00000000E+00  0.00000000E+00  0.00000000E+00
  0.00000000E+00  0.00000000E+00  0.00000000E+00
  0.00000000E+00  0.00000000E+00  0.00000000E+00
  0.00000000E+00  0.00000000E+00  0.00000000E+00
  0.00000000E+00  0.00000000E+00  0.00000000E+00
  0.00000000E+00  0.00000000E+00  0.00000000E+00
  0.00000000E+00  0.00000000E+00  0.00000000E+00
  0.00000000E+00  0.00000000E+00  0.00000000E+00
  0.00000000E+00  0.00000000E+00  0.00000000E+00
  0.00000000E+00  0.00000000E+00  0.00000000E+00
  0.00000000E+00  0.00000000E+00  0.00000000E+00
  0.00000000E+00  0.00000000E+00  0.00000000E+00
  0.00000000E+00  0.00000000E+00  0.00000000E+00
  0.00000000E+00  0.00000000E+00  0.00000000E+00
  0.00000000E+00  0.00000000E+00  0.00000000E+00
  0.00000000E+00  0.00000000E+00  0.00000000E+00
  0.00000000E+00  0.00000000E+00  0.00000000E+00
  0.00000000E+00  0.00000000E+00  0.00000000E+00
  0.00000000E+00  0.00000000E+00  0.00000000E+00
  0.00000000E+00  0.00000000E+00  0.00000000E+00
  0.00000000E+00  0.00000000E+00  0.00000000E+00
  0.00000000E+00  0.00000000E+00  0.00000000E+00
  0.00000000E+00  0.00000000E+00  0.00000000E+00
  0.00000000E+00  0.00000000E+00  0.00000000E+00
  0.00000000E+00  0.00000000E+00  0.00000000E+00
  0.00000000E+00  0.00000000E+00  0.00000000E+00
  0.00000000E+00  0.00000000E+00  0.00000000E+00
  0.00000000E+00  0.00000000E+00  0.00000000E+00
  0.00000000E+00  0.00000000E+00  0.00000000E+00
  0.00000000E+00  0.00000000E+00  0.00000000E+00
  0.00000000E+00  0.00000000E+00  0.00000000E+00
  0.00000000E+00  0.00000000E+00  0.00000000E+00
  0.00000000E+00  0.00000000E+00  0.00000000E+00
  0.00000000E+00  0.00000000E+00  0.00000000E+00
  0.00000000E+00  0.00000000E+00  0.00000000E+00
  0.00000000E+00  0.00000000E+00  0.00000000E+00
  0.00000000E+00  0.00000000E+00  0.00000000E+00
  0.00000000E+00  0.00000000E+00  0.00000000E+00
  0.00000000E+00  0.00000000E+00  0.00000000E+00
  0.00000000E+00  0.00000000E+00  0.00000000E+00
  0.00000000E+00  0.00000000E+00  0.00000000E+00
  0.00000000E+00  0.00000000E+00  0.00000000E+00
  0.00000000E+00  0.00000000E+00  0.00000000E+00
  0.00000000E+00  0.00000000E+00  0.00000000E+00
  0.00000000E+00  0.00000000E+00  0.00000000E+00
  0.00000000E+00  0.00000000E+00  0.00000000E+00
  0.00000000E+00  0.00000000E+00  0.00000000E+00
  0.00000000E+00  0.00000000E+00  0.00000000E+00
  0.00000000E+00  0.00000000E+00  0.00000000E+00
  0.00000000E+00  0.00000000E+00  0.00000000E+00
  0.00000000E+00  0.00000000E+00  0.00000000E+00
  0.00000000E+00  0.00000000E+00  0.00000000E+00
  0.00000000E+00  0.00000000E+00  0.00000000E+00
  0.00000000E+00  0.00000000E+00  0.00000000E+00
  0.00000000E+00  0.00000000E+00  0.00000000E+00
  0.00000000E+00  0.00000000E+00  0.00000000E+00
  0.00000000E+00  0.00000000E+00  0.00000000E+00
  0.00000000E+00  0.00000000E+00  0.00000000E+00
  0.00000000E+00  0.00000000E+00  0.00000000E+00
  0.00000000E+00  0.00000000E+00  0.00000000E+00
  0.00000000E+00  0.00000000E+00  0.00000000E+00
  0.00000000E+00  0.00000000E+00  0.00000000E+00
  0.00000000E+00  0.00000000E+00  0.00000000E+00
  0.00000000E+00  0.00000000E+00  0.00000000E+00
  0.00000000E+00  0.00000000E+00  0.00000000E+00
  0.00000000E+00  0.00000000E+00  0.00000000E+00
  0.00000000E+00  0.00000000E+00  0.00000000E+00
  0.00000000E+00  0.00000000E+00  0.00000000E+00
  0.00000000E+00  0.00000000E+00  0.00000000E+00
  0.00000000E+00  0.00000000E+00  0.00000000E+00
  0.00000000E+00  0.00000000E+00  0.00000000E+00
  0.00000000E+00  0.00000000E+00  0.00000000E+00
  0.00000000E+00  0.00000000E+00  0.00000000E+00
  0.00000000E+00  0.00000000E+00  0.00000000E+00
  0.00000000E+00  0.00000000E+00  0.00000000E+00
  0.00000000E+00  0.00000000E+00  0.00000000E+00
  0.00000000E+00  0.00000000E+00  0.00000000E+00
  0.00000000E+00  0.00000000E+00  0.00000000E+00
  0.00000000E+00  0.00000000E+00  0.00000000E+00
  0.00000000E+00  0.00000000E+00  0.00000000E+00
  0.00000000E+00  0.00000000E+00  0.00000000E+00
  0.00000000E+00  0.00000000E+00  0.00000000E+00
  0.00000000E+00  0.00000000E+00  0.00000000E+00
  0.00000000E+00  0.00000000E+00  0.00000000E+00
  0.00000000E+00  0.00000000E+00  0.00000000E+00
  0.00000000E+00  0.00000000E+00  0.00000000E+00
  0.00000000E+00  0.00000000E+00  0.00000000E+00
  0.00000000E+00  0.00000000E+00  0.00000000E+00
  0.00000000E+00  0.00000000E+00  0.00000000E+00
  0.00000000E+00  0.00000000E+00  0.00000000E+00
  0.00000000E+00  0.00000000E+00  0.00000000E+00
  0.00000000E+00  0.00000000E+00  0.00000000E+00
  0.00000000E+00  0.00000000E+00  0.00000000E+00
  0.00000000E+00  0.00000000E+00  0.00000000E+00
  0.00000000E+00  0.00000000E+00  0.00000000E+00
  0.00000000E+00  0.00000000E+00  0.00000000E+00
  0.00000000E+00  0.00000000E+00  0.00000000E+00
  0.00000000E+00  0.00000000E+00  0.00000000E+00
  0.00000000E+00  0.00000000E+00  0.00000000E+00
  0.00000000E+00  0.00000000E+00  0.00000000E+00
  0.00000000E+00  0.00000000E+00  0.00000000E+00
  0.00000000E+00  0.00000000E+00  0.00000000E+00
  0.00000000E+00  0.00000000E+00  0.00000000E+00
  0.00000000E+00  0.00000000E+00  0.00000000E+00
  0.00000000E+00  0.00000000E+00  0.00000000E+00
  0.00000000E+00  0.00000000E+00  0.00000000E+00
  0.00000000E+00  0.00000000E+00  0.00000000E+00
  0.00000000E+00  0.00000000E+00  0.00000000E+00
  0.00000000E+00  0.00000000E+00  0.00000000E+00
  0.00000000E+00  0.00000000E+00  0.00000000E+00
  0.00000000E+00  0.00000000E+00  0.00000000E+00
  0.00000000E+00  0.00000000E+00  0.00000000E+00
  0.00000000E+00  0.00000000E+00  0.00000000E+00
  0.00000000E+00  0.00000000E+00  0.00000000E+00
  0.00000000E+00  0.00000000E+00  0.00000000E+00
  0.00000000E+00  0.00000000E+00  0.00000000E+00
  0.00000000E+00  0.00000000E+00  0.00000000E+00
  0.00000000E+00  0.00000000E+00  0.00000000E+00
  0.00000000E+00  0.00000000E+00  0.00000000E+00
  0.00000000E+00  0.00000000E+00  0.00000000E+00
  0.00000000E+00  0.00000000E+00  0.00000000E+00
  0.00000000E+00  0.00000000E+00  0.00000000E+00
  0.00000000E+00  0.00000000E+00  0.00000000E+00
  0.00000000E+00  0.00000000E+00  0.00000000E+00
  0.00000000E+00  0.00000000E+00  0.00000000E+00
  0.00000000E+00  0.00000000E+00  0.00000000E+00
  0.00000000E+00  0.00000000E+00  0.00000000E+00
  0.00000000E+00  0.00000000E+00  0.00000000E+00
  0.00000000E+00  0.00000000E+00  0.00000000E+00
  0.00000000E+00  0.00000000E+00  0.00000000E+00
  0.00000000E+00  0.00000000E+00  0.00000000E+00
  0.00000000E+00  0.00000000E+00  0.00000000E+00
  0.00000000E+00  0.00000000E+00  0.00000000E+00
  0.00000000E+00  0.00000000E+00  0.00000000E+00
  0.00000000E+00  0.00000000E+00  0.00000000E+00
  0.00000000E+00  0.00000000E+00  0.00000000E+00
  0.00000000E+00  0.00000000E+00  0.00000000E+00
  0.00000000E+00  0.00000000E+00  0.00000000E+00
  0.00000000E+00  0.00000000E+00  0.00000000E+00
  0.00000000E+00  0.00000000E+00  0.00000000E+00
  0.00000000E+00  0.00000000E+00  0.00000000E+00
  0.00000000E+00  0.00000000E+00  0.00000000E+00
  0.00000000E+00  0.00000000E+00  0.00000000E+00
  0.00000000E+00  0.00000000E+00  0.00000000E+00
  0.00000000E+00  0.00000000E+00  0.00000000E+00
  0.00000000E+00  0.00000000E+00  0.00000000E+00
  0.00000000E+00  0.00000000E+00  0.00000000E+00
  0.00000000E+00  0.00000000E+00  0.00000000E+00
  0.00000000E+00  0.00000000E+00  0.00000000E+00
  0.00000000E+00  0.00000000E+00  0.00000000E+00
