La4 Zr4 O14
1.0
   0.0000000000000000    5.4461560000000002    5.4461560000000002
   5.4461560000000002    0.0000000000000000    5.4461560000000002
   5.4461560000000002    5.4461560000000002    0.0000000000000000
La Zr O
4 4 14
direct
   0.6250000000000000    0.6250000000000000    0.1250000000000000 La
   0.6250000000000000    0.1250000000000000    0.6250000000000000 La
   0.1250000000000000    0.6250000000000000    0.6250000000000000 La
   0.6250000000000000    0.6250000000000000    0.6250000000000000 La
   0.1250000000000000    0.1250000000000000    0.6250000000000000 Zr
   0.1250000000000000    0.6250000000000000    0.1250000000000000 Zr
   0.6250000000000000    0.1250000000000000    0.1250000000000000 Zr
   0.1250000000000000    0.1250000000000000    0.1250000000000000 Zr
   0.7500000000000000    0.7500000000000000    0.7500000000000000 O
   0.5000000000000000    0.5000000000000000    0.5000000000000000 O
   0.0420870000000000    0.4579129999999990    0.0420870000000000 O
   0.7920870000000000    0.2079130000000000    0.7920870000000000 O
   0.0420870000000000    0.0420870000000000    0.4579129999999990 O
   0.4579129999999990    0.0420870000000000    0.0420870000000000 O
   0.0420870000000000    0.4579129999999990    0.4579129999999990 O
   0.4579129999999990    0.4579129999999990    0.0420870000000000 O
   0.4579129999999990    0.0420870000000000    0.4579129999999990 O
   0.2079130000000000    0.7920870000000000    0.7920870000000000 O
   0.7920870000000000    0.2079130000000000    0.2079130000000000 O
   0.2079130000000000    0.7920870000000000    0.2079130000000000 O
   0.7920870000000000    0.7920870000000000    0.2079130000000000 O
   0.2079130000000000    0.2079130000000000    0.7920870000000000 O
