# MAY WANT TO CHANGE NCORE, KPAR, AEXX, ENCUT, IBRION, LREAL, NUPDOWN, ISPIN, MAGMOM = Typical variable parameters
AEXX = 0.25
ALGO = Normal  # change to all if zhegv, fexcp/f or zbrent errors encountered, or poor electronic convergence
EDIFF = 4e-07
EDIFFG = -0.01
ENCUT = 600.0
GGA = Pe
HFSCREEN = 0.208
IBRION = 2
ICHARG = 1
ISIF = 2
ISMEAR = 0
ISPIN = 2
KPAR = 1  # only one k-point (γ-only)
LASPH = True
LHFCALC = True
LORBIT = 11
LREAL = Auto
NCORE = 16
NEDOS = 3000
NSW = 100
NUPDOWN = 2.0
PREC = Accurate
PRECFOCK = Fast
SIGMA = 0.05
