20.0% N(Distort)=4 ~[0.5,0.5,0.5]       
   1.00000000000000     
    12.5998379999999983    0.0000000000000004    0.0000000000000004
     0.0000000000000004   12.5998379999999983   -0.0000000000000004
    -0.0000000000000004   -0.0000000000000004   12.5998379999999983
   Mg   O 
   109   107
Direct
  0.6657535501479271 -0.0001708341325566 -0.0000442789163830
  0.8323900160033627  0.1661508033244158 -0.0000018708900090
  0.8322536089587880 -0.0002376444560001  0.1663521105084407
  0.3314242134237999 -0.0001026745518256 -0.0000954471216096
  0.4986335755636317  0.1652006885361212 -0.0016325675229011
  0.6661598652623341  0.3325818028643961 -0.0010813684033909
  0.8326589837271288  0.4996702230557870  0.9998146601013157
  0.4984731821908646 -0.0000477516182176  0.1659420988197014
  0.6660213542385693  0.1656803012720095  0.1661371281621046
  0.8322740344405768  0.3326034875459710  0.1663565143490546
  0.6656381119885584  0.0006892950895106  0.3330241955395757
  0.8324878067760472  0.1656845216966029  0.3326467839973539
  0.8326790591723717 -0.0000382983000036  0.5001172911761257
 -0.0013691911340808 -0.0001964139061624 -0.0000755248257220
  0.1649698598485766  0.1661945524622286 -0.0004501140663381
  0.3312445585395763  0.3324435923023732 -0.0019757097713567
  0.4983825877709310  0.4995666875915737 -0.0045604234208285
  0.6656032541034672  0.6667676339671036  0.9990988180924611
  0.8322373066186562  0.8334111383242214  0.0000022581571042
  0.1648714543093716 -0.0002583172576531  0.1662020948288093
  0.3311009823094971  0.1656065530232375  0.1654350804907979
  0.4987842525235178  0.3265715425490969  0.1586054189766753
  0.6660366985475912  0.4993683686111417  0.1630260208256808
  0.8332953262995082  0.6667138086785338  0.1653378302962990
  0.3313369841925755  0.0008400763156843  0.3324506636641982
  0.4984020614758547  0.1652142094404359  0.3318644806634374
  0.6655362113726300  0.3314696333505648  0.3330678309709351
  0.8355507940782947  0.4993927614990850  0.3325680108593045
  0.4984323421044826  0.0043107090475581  0.5001828817096047
  0.6667078081837313  0.1652962132061331  0.5001939006185800
  0.8398702868471806  0.3266868525172331  0.4998384580406723
  0.6661571677251854  0.0008315026286510  0.6671942107333397
  0.8331376737076880  0.1656517515437341  0.6674074258585270
  0.8324135038371115 -0.0002339463485982  0.8336325264480320
 -0.0012918573943714  0.3326737709398765 -0.0001406186267132
  0.1640157319634262  0.4998313497727240 -0.0016207300662781
  0.3313724498853641  0.6673503444655118 -0.0010641740599374
  0.4984618272269181  0.8338610145473059 -0.0001638220931818
 -0.0014789535638583  0.1661153060042785  0.1661985085647873
  0.1643795775977260  0.3323297004670193  0.1654394955165436
  0.3253975687973329  0.4999456841974238  0.1586205165806482
  0.4982027963369500  0.6672058949247980  0.1630265819661160
  0.6655223915343760  0.8344789407108864  0.1652832578148823
 -0.0013777459131079 -0.0001923767460902  0.3328486370653810
  0.1644196798198631  0.1656655580769202  0.3325813388265211
  0.3278478806669846  0.3290237200610194  0.3325272282014298
  0.4798356638539104  0.4810214825597173  0.3005349058295931
  0.6713829353066350  0.6725695073453387  0.3271882590103389
  0.8333068822841316  0.8344524554092785  0.3330664137538290
  0.1640264925480823  0.0013916083848869  0.4999441638579936
  0.3313079814241021  0.1667165062208333  0.4999326907567981
  0.4986620703099084  0.3298502400797251  0.4999499111610097
  0.6978580422286537  0.4813111498267353  0.5186540174487303
  0.8356268919572984  0.6672129760555664  0.5004036735059045
  0.3312663240884922  0.0017325430025192  0.6673273378485157
  0.4986653988479505  0.1667159963217193  0.6672779919557441
  0.6660350465202584  0.3291148423921397  0.6706830347134899
  0.8399218126299007  0.4999678075143914  0.6731463187626373
  0.4986510384107194  0.0013940899930065  0.8345663190018027
  0.6660230190731820  0.1656898344641740  0.8340727666776456
  0.8331492827534424  0.3323780926047010  0.8341260600602893
  0.9986541273973865  0.6669219783926199 -0.0000473188311684
  0.1648960069166500  0.8335605633095331  0.0000226136623164
 -0.0012449905537228  0.4996841554694625  0.1659476452654102
  0.1644548693498771  0.6671718488217717  0.1661382156590527
  0.3313582425097856  0.8334386449124461  0.1663621571612982
 -0.0003739360881656  0.3325971639215485  0.3324886237170280
  0.1640265732761209  0.4995780058818037  0.3318869808446400
  0.3302613739678953  0.6667066817090692  0.3330724687146104
  0.4982070264323872  0.8367283790137489  0.3325594629523866
  0.0001867571124945  0.1652684641371409  0.4999434241956919
  0.1655464034697756  0.3325174903656593  0.4999486448401861
  0.3286636834345419  0.4998340875397850  0.4999464928757349
  0.4800518796418411  0.6990688653016541  0.5186290828229856
  0.6660592140914613  0.8367495861441849  0.5004123543909095
 -0.0012785693938260 -0.0000915084259090  0.6670973315317679
  0.1655036841037422  0.1666952261655467  0.6669228105798740
  0.3320970295473991  0.3332722118858926  0.6665198676386564
  0.4986445388155515  0.4998746793473652  0.6699529084806226
  0.6655272583283295  0.6667184347985323  0.6683461378734651
  0.8322844086113356  0.8334348009896509  0.6671839577650069
  0.1649875595750349  0.0002267272516565  0.8335361227849400
  0.3316325655404639  0.1666797245614629  0.8331131039682157
  0.4986519290377235  0.3325155990893716  0.8330536209690204
  0.6666954468095048  0.4996190423056748  0.8345250461061603
  0.8325034417133589  0.6671659848787173  0.8341022429178946
 -0.0014315472229068  0.8334042606612380  0.1663426398154579
 -0.0004633570988488  0.6667749374403665  0.3330207659088613
  0.1644438722056829  0.8336514026192171  0.3326352469873209
  0.0031209371301886  0.4995822035340786  0.5002069045062918
  0.1640648992926235  0.6678879733706962  0.5002137202558479
  0.3254755514671092  0.8411008229931423  0.4998366052750290
  0.0005207604910114  0.3324907103866720  0.6673016621343645
  0.1655658435014093  0.4998458613560825  0.6672454963071549
  0.3279014317034007  0.6672781678713426  0.6706529992974773
  0.4987908744565958  0.8411235374960485  0.6731475006242396
 -0.0009843780320674  0.1662475185685694  0.8335226962592714
  0.1654991801975776  0.3328665867624238  0.8330820817078468
  0.3312803218396287  0.4998687801831816  0.8330358966795155
  0.4983833580359250  0.6679441548142336  0.8345618433761098
  0.6660060757411399  0.8336559174745277  0.8341098979856714
  0.9988041693542381  0.8338336761291362  0.5001147196327947
 -0.0003228499616270  0.6673026192585676  0.6672043465761782
  0.1643997466854978  0.8343402326120560  0.6674283805925397
  0.0002059583811771  0.4998399730641316  0.8345209784026115
  0.1644780405439528  0.6671976651039584  0.8340868662297223
  0.3311175815090022  0.8343633790883046  0.8341640660971615
 -0.0014348976040596  0.8335694063872664  0.8336279515671243
  0.5551735421422028  0.5563461386755102  0.4431468121002823
  0.8317666881234035  0.1665807020221181  0.1668340810274508
 -0.0017096382953200  0.3331849337417161  0.1665302386278574
 -0.0015341484119191  0.1663858056357546  0.3331853844753382
  0.4985872351376553  0.1653762120992733  0.1653372134122522
  0.6644048004698458  0.3339555834909360  0.1669411711332203
  0.8305949982488643  0.4998836975430324  0.1679636097793301
 -0.0016214328742350  0.6663580977010789  0.1668175233690926
  0.6652865920729125  0.1669219988677530  0.3333047781401500
  0.8316083928064681  0.3340012124022271  0.3342013074317741
 -0.0003226189729720  0.4997664151374782  0.3328026433525322
  0.8332213539369651  0.1654239740556513  0.4999800162944206
  0.0012204364541516  0.3321951898264187  0.4998827850491356
 -0.0009059106663060  0.1665253148232398  0.6665531369107931
  0.1651828805689381  0.1664440747035382  0.1662926730144652
  0.3324652753166916  0.3336957519522410  0.1656835062303033
  0.4976648970960383  0.4988518899371305  0.1551197330736899
  0.6643759016063726  0.6655540359322109  0.1667475515125583
  0.8314001564385165  0.8325943130264932  0.1671585625704250
 -0.0015915877455552 -0.0003687584929037  0.1666508520546009
  0.3315526533489341  0.1662375443398144  0.3327089871330731
  0.4973408118800688  0.3302107601146792  0.3305339269590643
  0.6585755706063108  0.5000376192231173  0.3399883112264508
  0.8318389321633255  0.6655657823717140  0.3342370282603053
 -0.0016324527084799  0.8329400022099586  0.3334196942078979
  0.4990124616386711  0.1676192252279883  0.4995308728401390
  0.6680126083011781  0.3303164885521457  0.5012586113004026
  0.8433726402997832  0.4989196721489003  0.5009072568989406
 -0.0002786891547350  0.6669724793856229  0.5000161479471474
  0.6658085952457840  0.1662730267316557  0.6669530338017411
  0.8328491388969110  0.3337368257361312  0.6660548369335860
  0.0012291349356492  0.4999132719654447  0.6676115223348450
  0.8322555172013281  0.1664696060791490  0.8332825900614390
  0.9990874662663816  0.3332368952965279  0.8332524260337043
 -0.0014219269330279  0.1664174622341043 -0.0000764404135442
  0.1641480567774406  0.4997880381771839  0.1653466488131195
  0.3327470107823162  0.6655909421161481  0.1669699907823458
  0.4986549399609267  0.8318206158245015  0.1679780990252724
  0.6651742069113737 -0.0004234146415917  0.1668200523309119
  0.1650155666259487  0.3327873274782235  0.3327282546733662
  0.3289986066433007  0.4985191766063983  0.3305583982407759
  0.4988422240924392  0.6597437615827375  0.3399835457076359
  0.6643680433851131  0.8330169315595974  0.3342208552267375
  0.8317646901787983  0.9995649844298938  0.3334133953773444
  0.1657428120019642  0.1669812958833019  0.4996760312389646
  0.3330321228951433  0.3342385450004666  0.4989836366725579
  0.6584923727672598  0.6596036776092894  0.4997249946466628
  0.8306057335965844  0.8317990275219529  0.4999166372401442
 -0.0015779678539138 -0.0003617454392396  0.4999069445064639
  0.3323248793225071  0.1676110996992688  0.6662449464007602
  0.4995704991305465  0.3342616818580305  0.6655370182913007
  0.6680348427309968  0.4985523647376698  0.6695951591384651
  0.8316306090041241  0.6655920013846234  0.6657776947951898
 -0.0016901245763544  0.8332085818816763  0.6665589088820405
  0.4988707880479405  0.1669678049827109  0.8328004090198715
  0.6658203585711426  0.3328057682616368  0.8335055544650299
  0.8332254209313618  0.4998139843215472  0.8343859439713780
 -0.0014957880672377  0.6665807505857071  0.8333732278270427
  0.6653766500708164  0.1663972149663866  0.0000708334325564
  0.8320330757849468  0.3331843929959761  0.0002431505090165
  0.9984281654354453  0.4998674563846139  0.0001464707176281
  0.1653193034433191  0.8329600313690220  0.1668075165815834
  0.3319182807616574 -0.0004720217621991  0.1665483209884644
  0.1656912817854226  0.6664848898881067  0.3333129170694283
  0.3327518544844134  0.8328189750196794  0.3341857732040040
  0.4985569759864995  0.0008891874468428  0.3327869581179388
  0.1663894278396155  0.5002277066985804  0.4995368787864194
  0.3290990409310289  0.6692197729046381  0.5012398220938269
  0.4977428234792151  0.8445791546759318  0.5008810038878425
  0.6658018737828880  0.0009117131035789  0.5000175939289678
  0.1663970822259943  0.3335627376747924  0.6662178387397860
  0.3330253073335993  0.5008193941827442  0.6655178462515796
  0.4973492683146054  0.6692321274119392  0.6695419864620931
  0.6644119325435903  0.8327822593699323  0.6657763457262776
  0.8320241266084303 -0.0004772476468596  0.6665788701736285
  0.1654555173116503  0.1667097246688769  0.8330447798150599
  0.3323183956954798  0.3335542314405193  0.8321571480904666
  0.4990004762083939  0.5002526947866244  0.8321705593345017
  0.6652810393381327  0.6665081074094189  0.8328740299794377
  0.8317683028405052  0.8329539747737611  0.8331813738350798
 -0.0014038432042463 -0.0001859977600941  0.8333168967243821
  0.3319412437507772  0.1665008478640518 -0.0005486707735118
  0.4986840074664307  0.3321696340372011 -0.0026988002707611
  0.6657675879462004  0.4997604469855468 -0.0011358077422239
  0.8317608198605417  0.6663525578343681  0.0001886052654606
 -0.0015827173246541  0.8330762331065308  0.0001062401473565
  0.1651409786273173 -0.0003164935716641  0.3331862208695937
  0.1641830767325307  0.8344312054791674  0.4999915691507807
  0.3309807423586976  0.0024264668191549  0.4998575934314642
  0.1650513750670815  0.6670416276148523  0.6669623891732146
  0.3324807281653206  0.8341132831274735  0.6660630050473866
  0.4987064410100346  0.0024432647963481  0.6675954376927790
  0.1657292082592746  0.5001004302398268  0.8327697892140911
  0.3315482871042271  0.6670851936771849  0.8335076121153657
  0.4985861391084894  0.8344608823437371  0.8343915020597122
  0.6653898532759449 -0.0003173069203320  0.8333623051907456
  0.1652601041872421  0.3331973418870007 -0.0005628999653566
  0.3309272683820958  0.4999076801762589 -0.0026888246403296
  0.4985433131795070  0.6669862026469033 -0.0011216587340789
  0.6651482578647089  0.8329550988429877  0.0001975718532242
  0.8318857715013181 -0.0003535194598527  0.0001074938313115
  0.1652675379178324  0.0003366771061173  0.6665533470479922
  0.1652101616464061  0.8334847309585830  0.8332922983766707
  0.3319639839120744  0.0003273517352271  0.8332761882751986
  0.1651785361035907  0.6665973132439971  0.0000761071577850
  0.3319315134128998  0.8332402487394270  0.0002588741810638
  0.4986340236670403 -0.0003611930853401  0.0001541884587792
  0.1651648665416262 -0.0002047146023613 -0.0000592293973840
 
  0.00000000E+00  0.00000000E+00  0.00000000E+00
  0.00000000E+00  0.00000000E+00  0.00000000E+00
  0.00000000E+00  0.00000000E+00  0.00000000E+00
  0.00000000E+00  0.00000000E+00  0.00000000E+00
  0.00000000E+00  0.00000000E+00  0.00000000E+00
  0.00000000E+00  0.00000000E+00  0.00000000E+00
  0.00000000E+00  0.00000000E+00  0.00000000E+00
  0.00000000E+00  0.00000000E+00  0.00000000E+00
  0.00000000E+00  0.00000000E+00  0.00000000E+00
  0.00000000E+00  0.00000000E+00  0.00000000E+00
  0.00000000E+00  0.00000000E+00  0.00000000E+00
  0.00000000E+00  0.00000000E+00  0.00000000E+00
  0.00000000E+00  0.00000000E+00  0.00000000E+00
  0.00000000E+00  0.00000000E+00  0.00000000E+00
  0.00000000E+00  0.00000000E+00  0.00000000E+00
  0.00000000E+00  0.00000000E+00  0.00000000E+00
  0.00000000E+00  0.00000000E+00  0.00000000E+00
  0.00000000E+00  0.00000000E+00  0.00000000E+00
  0.00000000E+00  0.00000000E+00  0.00000000E+00
  0.00000000E+00  0.00000000E+00  0.00000000E+00
  0.00000000E+00  0.00000000E+00  0.00000000E+00
  0.00000000E+00  0.00000000E+00  0.00000000E+00
  0.00000000E+00  0.00000000E+00  0.00000000E+00
  0.00000000E+00  0.00000000E+00  0.00000000E+00
  0.00000000E+00  0.00000000E+00  0.00000000E+00
  0.00000000E+00  0.00000000E+00  0.00000000E+00
  0.00000000E+00  0.00000000E+00  0.00000000E+00
  0.00000000E+00  0.00000000E+00  0.00000000E+00
  0.00000000E+00  0.00000000E+00  0.00000000E+00
  0.00000000E+00  0.00000000E+00  0.00000000E+00
  0.00000000E+00  0.00000000E+00  0.00000000E+00
  0.00000000E+00  0.00000000E+00  0.00000000E+00
  0.00000000E+00  0.00000000E+00  0.00000000E+00
  0.00000000E+00  0.00000000E+00  0.00000000E+00
  0.00000000E+00  0.00000000E+00  0.00000000E+00
  0.00000000E+00  0.00000000E+00  0.00000000E+00
  0.00000000E+00  0.00000000E+00  0.00000000E+00
  0.00000000E+00  0.00000000E+00  0.00000000E+00
  0.00000000E+00  0.00000000E+00  0.00000000E+00
  0.00000000E+00  0.00000000E+00  0.00000000E+00
  0.00000000E+00  0.00000000E+00  0.00000000E+00
  0.00000000E+00  0.00000000E+00  0.00000000E+00
  0.00000000E+00  0.00000000E+00  0.00000000E+00
  0.00000000E+00  0.00000000E+00  0.00000000E+00
  0.00000000E+00  0.00000000E+00  0.00000000E+00
  0.00000000E+00  0.00000000E+00  0.00000000E+00
  0.00000000E+00  0.00000000E+00  0.00000000E+00
  0.00000000E+00  0.00000000E+00  0.00000000E+00
  0.00000000E+00  0.00000000E+00  0.00000000E+00
  0.00000000E+00  0.00000000E+00  0.00000000E+00
  0.00000000E+00  0.00000000E+00  0.00000000E+00
  0.00000000E+00  0.00000000E+00  0.00000000E+00
  0.00000000E+00  0.00000000E+00  0.00000000E+00
  0.00000000E+00  0.00000000E+00  0.00000000E+00
  0.00000000E+00  0.00000000E+00  0.00000000E+00
  0.00000000E+00  0.00000000E+00  0.00000000E+00
  0.00000000E+00  0.00000000E+00  0.00000000E+00
  0.00000000E+00  0.00000000E+00  0.00000000E+00
  0.00000000E+00  0.00000000E+00  0.00000000E+00
  0.00000000E+00  0.00000000E+00  0.00000000E+00
  0.00000000E+00  0.00000000E+00  0.00000000E+00
  0.00000000E+00  0.00000000E+00  0.00000000E+00
  0.00000000E+00  0.00000000E+00  0.00000000E+00
  0.00000000E+00  0.00000000E+00  0.00000000E+00
  0.00000000E+00  0.00000000E+00  0.00000000E+00
  0.00000000E+00  0.00000000E+00  0.00000000E+00
  0.00000000E+00  0.00000000E+00  0.00000000E+00
  0.00000000E+00  0.00000000E+00  0.00000000E+00
  0.00000000E+00  0.00000000E+00  0.00000000E+00
  0.00000000E+00  0.00000000E+00  0.00000000E+00
  0.00000000E+00  0.00000000E+00  0.00000000E+00
  0.00000000E+00  0.00000000E+00  0.00000000E+00
  0.00000000E+00  0.00000000E+00  0.00000000E+00
  0.00000000E+00  0.00000000E+00  0.00000000E+00
  0.00000000E+00  0.00000000E+00  0.00000000E+00
  0.00000000E+00  0.00000000E+00  0.00000000E+00
  0.00000000E+00  0.00000000E+00  0.00000000E+00
  0.00000000E+00  0.00000000E+00  0.00000000E+00
  0.00000000E+00  0.00000000E+00  0.00000000E+00
  0.00000000E+00  0.00000000E+00  0.00000000E+00
  0.00000000E+00  0.00000000E+00  0.00000000E+00
  0.00000000E+00  0.00000000E+00  0.00000000E+00
  0.00000000E+00  0.00000000E+00  0.00000000E+00
  0.00000000E+00  0.00000000E+00  0.00000000E+00
  0.00000000E+00  0.00000000E+00  0.00000000E+00
  0.00000000E+00  0.00000000E+00  0.00000000E+00
  0.00000000E+00  0.00000000E+00  0.00000000E+00
  0.00000000E+00  0.00000000E+00  0.00000000E+00
  0.00000000E+00  0.00000000E+00  0.00000000E+00
  0.00000000E+00  0.00000000E+00  0.00000000E+00
  0.00000000E+00  0.00000000E+00  0.00000000E+00
  0.00000000E+00  0.00000000E+00  0.00000000E+00
  0.00000000E+00  0.00000000E+00  0.00000000E+00
  0.00000000E+00  0.00000000E+00  0.00000000E+00
  0.00000000E+00  0.00000000E+00  0.00000000E+00
  0.00000000E+00  0.00000000E+00  0.00000000E+00
  0.00000000E+00  0.00000000E+00  0.00000000E+00
  0.00000000E+00  0.00000000E+00  0.00000000E+00
  0.00000000E+00  0.00000000E+00  0.00000000E+00
  0.00000000E+00  0.00000000E+00  0.00000000E+00
  0.00000000E+00  0.00000000E+00  0.00000000E+00
  0.00000000E+00  0.00000000E+00  0.00000000E+00
  0.00000000E+00  0.00000000E+00  0.00000000E+00
  0.00000000E+00  0.00000000E+00  0.00000000E+00
  0.00000000E+00  0.00000000E+00  0.00000000E+00
  0.00000000E+00  0.00000000E+00  0.00000000E+00
  0.00000000E+00  0.00000000E+00  0.00000000E+00
  0.00000000E+00  0.00000000E+00  0.00000000E+00
  0.00000000E+00  0.00000000E+00  0.00000000E+00
  0.00000000E+00  0.00000000E+00  0.00000000E+00
  0.00000000E+00  0.00000000E+00  0.00000000E+00
  0.00000000E+00  0.00000000E+00  0.00000000E+00
  0.00000000E+00  0.00000000E+00  0.00000000E+00
  0.00000000E+00  0.00000000E+00  0.00000000E+00
  0.00000000E+00  0.00000000E+00  0.00000000E+00
  0.00000000E+00  0.00000000E+00  0.00000000E+00
  0.00000000E+00  0.00000000E+00  0.00000000E+00
  0.00000000E+00  0.00000000E+00  0.00000000E+00
  0.00000000E+00  0.00000000E+00  0.00000000E+00
  0.00000000E+00  0.00000000E+00  0.00000000E+00
  0.00000000E+00  0.00000000E+00  0.00000000E+00
  0.00000000E+00  0.00000000E+00  0.00000000E+00
  0.00000000E+00  0.00000000E+00  0.00000000E+00
  0.00000000E+00  0.00000000E+00  0.00000000E+00
  0.00000000E+00  0.00000000E+00  0.00000000E+00
  0.00000000E+00  0.00000000E+00  0.00000000E+00
  0.00000000E+00  0.00000000E+00  0.00000000E+00
  0.00000000E+00  0.00000000E+00  0.00000000E+00
  0.00000000E+00  0.00000000E+00  0.00000000E+00
  0.00000000E+00  0.00000000E+00  0.00000000E+00
  0.00000000E+00  0.00000000E+00  0.00000000E+00
  0.00000000E+00  0.00000000E+00  0.00000000E+00
  0.00000000E+00  0.00000000E+00  0.00000000E+00
  0.00000000E+00  0.00000000E+00  0.00000000E+00
  0.00000000E+00  0.00000000E+00  0.00000000E+00
  0.00000000E+00  0.00000000E+00  0.00000000E+00
  0.00000000E+00  0.00000000E+00  0.00000000E+00
  0.00000000E+00  0.00000000E+00  0.00000000E+00
  0.00000000E+00  0.00000000E+00  0.00000000E+00
  0.00000000E+00  0.00000000E+00  0.00000000E+00
  0.00000000E+00  0.00000000E+00  0.00000000E+00
  0.00000000E+00  0.00000000E+00  0.00000000E+00
  0.00000000E+00  0.00000000E+00  0.00000000E+00
  0.00000000E+00  0.00000000E+00  0.00000000E+00
  0.00000000E+00  0.00000000E+00  0.00000000E+00
  0.00000000E+00  0.00000000E+00  0.00000000E+00
  0.00000000E+00  0.00000000E+00  0.00000000E+00
  0.00000000E+00  0.00000000E+00  0.00000000E+00
  0.00000000E+00  0.00000000E+00  0.00000000E+00
  0.00000000E+00  0.00000000E+00  0.00000000E+00
  0.00000000E+00  0.00000000E+00  0.00000000E+00
  0.00000000E+00  0.00000000E+00  0.00000000E+00
  0.00000000E+00  0.00000000E+00  0.00000000E+00
  0.00000000E+00  0.00000000E+00  0.00000000E+00
  0.00000000E+00  0.00000000E+00  0.00000000E+00
  0.00000000E+00  0.00000000E+00  0.00000000E+00
  0.00000000E+00  0.00000000E+00  0.00000000E+00
  0.00000000E+00  0.00000000E+00  0.00000000E+00
  0.00000000E+00  0.00000000E+00  0.00000000E+00
  0.00000000E+00  0.00000000E+00  0.00000000E+00
  0.00000000E+00  0.00000000E+00  0.00000000E+00
  0.00000000E+00  0.00000000E+00  0.00000000E+00
  0.00000000E+00  0.00000000E+00  0.00000000E+00
  0.00000000E+00  0.00000000E+00  0.00000000E+00
  0.00000000E+00  0.00000000E+00  0.00000000E+00
  0.00000000E+00  0.00000000E+00  0.00000000E+00
  0.00000000E+00  0.00000000E+00  0.00000000E+00
  0.00000000E+00  0.00000000E+00  0.00000000E+00
  0.00000000E+00  0.00000000E+00  0.00000000E+00
  0.00000000E+00  0.00000000E+00  0.00000000E+00
  0.00000000E+00  0.00000000E+00  0.00000000E+00
  0.00000000E+00  0.00000000E+00  0.00000000E+00
  0.00000000E+00  0.00000000E+00  0.00000000E+00
  0.00000000E+00  0.00000000E+00  0.00000000E+00
  0.00000000E+00  0.00000000E+00  0.00000000E+00
  0.00000000E+00  0.00000000E+00  0.00000000E+00
  0.00000000E+00  0.00000000E+00  0.00000000E+00
  0.00000000E+00  0.00000000E+00  0.00000000E+00
  0.00000000E+00  0.00000000E+00  0.00000000E+00
  0.00000000E+00  0.00000000E+00  0.00000000E+00
  0.00000000E+00  0.00000000E+00  0.00000000E+00
  0.00000000E+00  0.00000000E+00  0.00000000E+00
  0.00000000E+00  0.00000000E+00  0.00000000E+00
  0.00000000E+00  0.00000000E+00  0.00000000E+00
  0.00000000E+00  0.00000000E+00  0.00000000E+00
  0.00000000E+00  0.00000000E+00  0.00000000E+00
  0.00000000E+00  0.00000000E+00  0.00000000E+00
  0.00000000E+00  0.00000000E+00  0.00000000E+00
  0.00000000E+00  0.00000000E+00  0.00000000E+00
  0.00000000E+00  0.00000000E+00  0.00000000E+00
  0.00000000E+00  0.00000000E+00  0.00000000E+00
  0.00000000E+00  0.00000000E+00  0.00000000E+00
  0.00000000E+00  0.00000000E+00  0.00000000E+00
  0.00000000E+00  0.00000000E+00  0.00000000E+00
  0.00000000E+00  0.00000000E+00  0.00000000E+00
  0.00000000E+00  0.00000000E+00  0.00000000E+00
  0.00000000E+00  0.00000000E+00  0.00000000E+00
  0.00000000E+00  0.00000000E+00  0.00000000E+00
  0.00000000E+00  0.00000000E+00  0.00000000E+00
  0.00000000E+00  0.00000000E+00  0.00000000E+00
  0.00000000E+00  0.00000000E+00  0.00000000E+00
  0.00000000E+00  0.00000000E+00  0.00000000E+00
  0.00000000E+00  0.00000000E+00  0.00000000E+00
  0.00000000E+00  0.00000000E+00  0.00000000E+00
  0.00000000E+00  0.00000000E+00  0.00000000E+00
  0.00000000E+00  0.00000000E+00  0.00000000E+00
  0.00000000E+00  0.00000000E+00  0.00000000E+00
  0.00000000E+00  0.00000000E+00  0.00000000E+00
  0.00000000E+00  0.00000000E+00  0.00000000E+00
  0.00000000E+00  0.00000000E+00  0.00000000E+00
  0.00000000E+00  0.00000000E+00  0.00000000E+00
  0.00000000E+00  0.00000000E+00  0.00000000E+00
  0.00000000E+00  0.00000000E+00  0.00000000E+00
  0.00000000E+00  0.00000000E+00  0.00000000E+00
  0.00000000E+00  0.00000000E+00  0.00000000E+00
  0.00000000E+00  0.00000000E+00  0.00000000E+00
