KPOINTS from doped, with reciprocal_density = 945/Å⁻³
0
Gamma
19 19 12
