KPOINTS from doped, with reciprocal_density = 135/Å⁻³
0
Gamma
8 8 2
