KPOINTS from doped, with reciprocal_density = 85/Å⁻³
0
Gamma
8 8 5
