KPOINTS from doped, with reciprocal_density = 485/Å⁻³
0
Gamma
15 15 10
