-50.0% N(Distort)=2 ~[0.5,0.5,0.5]      
   1.00000000000000     
    12.5998379999999983    0.0000000000000004    0.0000000000000004
     0.0000000000000004   12.5998379999999983   -0.0000000000000004
    -0.0000000000000004   -0.0000000000000004   12.5998379999999983
   Mg   O 
   109   107
Direct
  0.6665448813720819 -0.0005370344092199  0.0005521729616113
  0.8332139796977280  0.1657971307194762  0.0006296717135595
  0.8330634611731590 -0.0005543601684576  0.1669385106765903
  0.3323016090573513 -0.0004570358807709  0.0004781646637476
  0.4994471918574176  0.1647964219678715 -0.0009671869813100
  0.6669654696533965  0.3321945993800220 -0.0003746676656014
  0.8334996213034083  0.4993260744881522  0.0004747117987888
  0.4992874555801241 -0.0004655055113012  0.1664891290543355
  0.6667647991166410  0.1652331837985585  0.1667107289570437
  0.8330665333065063  0.3322404881879723  0.1669302232128390
  0.6664388582296131  0.0002684303463332  0.3335343806989494
  0.8332532534777525  0.1652431738194676  0.3332255045601734
  0.8334845410016736 -0.0004583152106505  0.5006961234896039
 -0.0005080020374764 -0.0004705574922095  0.0005509345205551
  0.1658721386555325  0.1659012269012344  0.0001718911844319
  0.3320705218521278  0.3320980518120697 -0.0012721516018499
  0.4992297193769805  0.4992601615493756 -0.0035930871037123
  0.6664636193529179  0.6664874029989734 -0.0002623385469278
  0.8330744473991222  0.8331026690307718  0.0005991408197606
  0.1657939191414355 -0.0005742621667086  0.1667904227249637
  0.3319855396622836  0.1652086270177660  0.1660725289289888
  0.4996071854209366  0.3261388205459650  0.1593512105347473
  0.6669071726783544  0.4990453117465018  0.1637031827397715
  0.8342121765701568  0.6663830751258073  0.1657784193626707
  0.3321786334263654  0.0003983256107530  0.3330331222581331
  0.4992000798555309  0.1645863715783127  0.3323947402249305
  0.6663494718256308  0.3308988146287461  0.3336363193704650
  0.8362748930895245  0.4990493536206010  0.3330966011823344
  0.4992088341623191  0.0036282471098147  0.5008024298179968
  0.6676005870976629  0.1645714248179796  0.5008103335591035
  0.8406376583601982  0.3261209554596970  0.5003974329858412
  0.6669504184494719  0.0003727272919320  0.6678373627566876
  0.8339146910948917  0.1651843134556934  0.6680270215011748
  0.8332119256442104 -0.0005987500119987  0.8342410653369203
 -0.0004913121674192  0.3323449532327868  0.0004972780720823
  0.1647622874137888  0.4994762518446352 -0.0009418960116832
  0.3321601165159205  0.6669744049968404 -0.0003434077165157
  0.4992800949148595  0.8335217452972645  0.0004849861698472
 -0.0006198919065671  0.1658153284036381  0.1667935823710370
  0.1651935301934352  0.3320051577557890  0.1660794808566630
  0.3261438886324720  0.4996182014877369  0.1593747860964133
  0.4990173729212072  0.6669277660422339  0.1637142513981960
  0.6663507375748435  0.8342352856923761  0.1657754672373568
 -0.0005579931843739 -0.0005192604334921  0.3334427914730941
  0.1652293800329845  0.1652551559735200  0.3332127955941996
  0.3285202584571138  0.3285208332959438  0.3332131857179734
  0.4803271783934808  0.4802553036396883  0.3018413464068834
  0.6727414324398204  0.6727854919013829  0.3272422900497420
  0.8342080846645766  0.8342492487492217  0.3336345715154122
  0.1647588486191320  0.0010035225219298  0.5005508908068871
  0.3320689762409614  0.1661942027137363  0.5005493087790239
  0.4995230297331997  0.3288541040734710  0.5004870276220271
  0.6981478967269571  0.4802037029907713  0.5196981851429748
  0.8362467026150381  0.6669325151673934  0.5009633858587508
  0.3320402335611838  0.0012994614874661  0.6679659775870450
  0.4994598171999308  0.1661974192067616  0.6679536680975258
  0.6667925149225249  0.3285084749058719  0.6715077185096062
  0.8406261323370163  0.4996208974815453  0.6738588759869801
  0.4994307400217124  0.0009663395117535  0.8352514565692407
  0.6667794436343151  0.1652363503619017  0.8347856945557499
  0.8339259639581965  0.3319786055712134  0.8348241430253428
 -0.0005607830051182  0.6665776905724843  0.0005555431873433
  0.1657631459763015  0.8332414193936536  0.0006274081605009
 -0.0004723298734696  0.4993189657552129  0.1665046428440486
  0.1652265552258288  0.6667896297702030  0.1667334990263710
  0.3322090900240761  0.8330883254811329  0.1669327732981924
  0.0003601161574009  0.3322010443037705  0.3330352633460200
  0.1645850313485913  0.4992141058725372  0.3323979454569804
  0.3309114051307659  0.6663674669744134  0.3336383649298221
  0.4990105274312172  0.8363041949272783  0.3330863976888185
  0.0009370316579521  0.1647884424218529  0.5005357781990054
  0.1661576826794246  0.3320762333296243  0.5005398957778333
  0.3288361531688055  0.4995419677200860  0.5004818151386947
  0.4801591115306560  0.6983029796740248  0.5198062159789720
  0.6668860983867415  0.8363047106367147  0.5009703773791404
  0.9995045006694958 -0.0004565836150505  0.6676843348212810
  0.1662876875116980  0.1663148391085925  0.6675059597373086
  0.3329201592069443  0.3329483118584357  0.6670722758296076
  0.4994983955259633  0.4995716134585267  0.6711339946861685
  0.6663414470426441  0.6663698600069061  0.6690602180285004
  0.8330589329990458  0.8330903360873234  0.6677702584234122
  0.1658467913190103 -0.0001159529070384  0.8341590093418744
  0.3324989130942246  0.1663312797035016  0.8337116873784287
  0.4994767923732443  0.3321264576720782  0.8338165675739094
  0.6676169471226575  0.4992372172279884  0.8354090000017024
  0.8332691007242014  0.6667980684801543  0.8347660943170203
 -0.0005818440990223  0.8331046315888542  0.1669309883085245
  0.0002443344754356  0.6664814144134915  0.3335263990413486
  0.1652187416111595  0.8333072630070643  0.3332080504871487
  0.0035719379106456  0.4992358135500755  0.5007677988597993
  0.1645457166939980  0.6676354241842568  0.5007819080530206
  0.3260870730092286  0.8407004957073907  0.5003773391169474
  0.0012562915219201  0.3320596418851870  0.6679460118474639
  0.1661371035096018  0.4994676485851960  0.6679280016533180
  0.3284229798491571  0.6668262926694370  0.6715059778709876
  0.4995879315335228  0.8406882580661303  0.6739141346070150
 -0.0001613573063999  0.1658850980062029  0.8341512225763908
  0.1662874548938276  0.3325159750571139  0.8337105160790611
  0.3320427826428744  0.4994960502142303  0.8338320571325600
  0.4991803166656721  0.6676329450185350  0.8354290059904327
  0.6667724443246933  0.8332780490049377  0.8347725504613710
 -0.0004953643820420  0.8335400395802174  0.5006805728196536
  0.0003385783853113  0.6669796002506939  0.6678059528036940
  0.1651419304618472  0.8339741927706806  0.6680229656122699
  0.0009168777832937  0.4994615668362009  0.8352315471895332
  0.1651773836590590  0.6668153434152011  0.8347828642021028
  0.3319259043438288  0.8339430692177314  0.8348345657368041
 -0.0006362083895281  0.8332565238136621  0.8342287963960228
  0.5573560650158034  0.5575124349579903  0.4426440071583219
  0.8325141432063390  0.1662337120337614  0.1674784874365601
 -0.0009696633571086  0.3328349718964823  0.1672118149595352
 -0.0008126423429822  0.1660048524742799  0.3337420108932703
  0.4994726740653346  0.1648996106964469  0.1658770012027571
  0.6652424000856916  0.3336937965578524  0.1676613173422186
  0.8314218273617732  0.4995809891922832  0.1685746926963905
 -0.0009017606337902  0.6660526688440487  0.1674460704021036
  0.6661408480211387  0.1663391686738960  0.3338458450695158
  0.8323170646595117  0.3336938694127681  0.3347485599780715
  0.0002250527113747  0.4994608086238260  0.3333880886738627
  0.8340960777187376  0.1648851097178630  0.5005321808534120
  0.0017811363786640  0.3318710977080874  0.5004172447467707
 -0.0001922503323683  0.1661115405201716  0.6671780103097609
  0.1660793904706829  0.1661112469834793  0.1669600554907024
  0.3334104962029222  0.3334122956036921  0.1664165274545753
  0.4986864187680043  0.4986837871787592  0.1564395879599936
  0.6652840593222208  0.6653074357898238  0.1672917986111019
  0.8321551749916276  0.8321797969148417  0.1678522195783647
 -0.0007575306946768 -0.0007296098947135  0.1673016944850296
  0.3323981239272810  0.1657035905261445  0.3333117846490549
  0.4982945962218323  0.3296599930780643  0.3309872077164221
  0.6599643623905117  0.4999812752961026  0.3400118524787108
  0.8327009973852602  0.6653075061847161  0.3346943201073100
 -0.0009023662341295  0.8325878600107016  0.3339579450869012
  0.4999439049222620  0.1668717885340978  0.5000834111991074
  0.6690189602840466  0.3296274486816327  0.5017177853325803
  0.8435228235529676  0.4986722431467758  0.5013269066953370
  0.0002123600989866  0.6666425955604579  0.5005453442990841
  0.6666833341004530  0.1656859928789902  0.6676326447170381
  0.8335755560609618  0.3333954102282657  0.6666057223700881
  0.0017811073707549  0.4995839663678561  0.6681232614211267
  0.8330345817314855  0.1660786999305959 -0.1660603074117347
 -0.0001899835008262  0.3328325870020971  0.8339100057474471
 -0.0005941551109226  0.1660847448910436  0.0006223531089059
  0.1648851228246765  0.4994880243774788  0.1659053307799276
  0.3336720524778043  0.6652586734471831  0.1676660839407011
  0.4995543979900050  0.8314510036182740  0.1685614846985283
  0.6660247119758201 -0.0008791219512946  0.1674342352586084
  0.1656843838204814  0.3324130344107427  0.3333128653138641
  0.3296996671017907  0.4982983417801961  0.3309952580184195
  0.4999505228283584  0.6600824631675006  0.3399656951253635
  0.6652682525655059  0.8327339359879566  0.3347030472330719
  0.8325312547484796 -0.0008651477044940  0.3339574439704520
  0.1664358744810112  0.1664755880995309  0.5002429922544041
  0.3339536289394459  0.3339656059488582  0.4994915104475280
  0.6600348792047971  0.6601101943938417  0.5000196085179814
  0.8314150868205473  0.8314634401755390  0.5004236675061197
 -0.0008541561943975 -0.0008121886355548  0.5004516200704878
  0.3331935918434416  0.1670919449848337  0.6668271575310514
  0.5005250723491128  0.3339801313570140  0.6660590085727065
  0.6690177508819404  0.4983100901633979  0.6703066316439007
  0.8323286735322938  0.6652658075091391  0.6663088220586354
 -0.0009812435991728  0.8328326152742730  0.6671747930549032
  0.4997618503765652  0.1664723415230702  0.8335546469074081
  0.6666934752136074  0.3324210790860188  0.8343177676363491
  0.8340969623027299  0.4994864253148950  0.8351107718728665
 -0.0008178835700679  0.6662812625279849  0.8340138103739251
  0.6662493686714654  0.1659945827021674  0.0007924136334831
  0.8327936943090785  0.3328200798815436  0.0009648592363356
 -0.0008580648934502  0.4995604835425992  0.0008444364974248
  0.1662024158820377  0.8325560628019152  0.1674740021820122
  0.3328054210334020 -0.0009367829212781  0.1671892814070085
  0.1663247474006807  0.6661693915158533  0.3338503449643911
  0.3336612935012592  0.8323754071291473  0.3347515205340971
  0.4994351585979695  0.0002663570037653  0.3333841871220479
  0.1668362395212120  0.4999540650583671  0.5000626403771028
  0.3296145189893771  0.6690473763139700  0.5017175810451325
  0.4986345826467149  0.8435944464327445  0.5013494047041963
  0.6666065541007303  0.0002565214355101  0.5005668171679453
  0.1670579531948656  0.3332022123758340  0.6668138993288193
  0.3339130074622488  0.5005524964358146  0.6660481826792928
  0.4982563798898091  0.6690646455934872  0.6703505585348873
  0.6652252863828547  0.8323548398578429  0.6663280103923209
  0.8327769146625911 -0.0009456595687499  0.6671986276397185
  0.1663040143473350  0.1663409052489329  0.8337068942617831
  0.3331985299810670  0.3332369569625900  0.8329246352175921
  0.4999326780123770  0.4999951070982320  0.8331305290063928
  0.6661516535050194  0.6661754965970362  0.8336673200304461
  0.8325225972305416  0.8325508190119638  0.8337930538842252
 -0.0006147262745182 -0.0005614978346671  0.8339740797246377
  0.3328266073465441  0.1661389205977902  0.0001663050026428
  0.4995871162052630  0.3319062177202944 -0.0018093015819663
  0.6666201825459105  0.4994727520231845 -0.0002491477638366
  0.8325570924506022  0.6660669827934053  0.0008922453928404
 -0.0007766878028339  0.8327525869536283  0.0007790918203244
  0.1659800280140876 -0.0007581161212366  0.3337439064950487
  0.1648552640194867  0.8341453740523743  0.5005173261032946
  0.3318440878768252  0.0018487046227979  0.5004491983350965
  0.1656385201503915  0.6667201860272871  0.6676037395604887
  0.3333577214059467  0.8336001276005411  0.6666097680264957
  0.4995571681742905  0.0018314741406321  0.6681756172442650
  0.1664143881502946  0.4997779913800550  0.8335452138467336
  0.3323446699709635  0.6667118811531424  0.8343172458294580
  0.4994449343850029  0.8341100643590276  0.8351382419186365
  0.6662512670482577 -0.0007942462834021  0.8340237226648741
  0.1661013429058965  0.3328511396717626  0.0001726944706345
  0.3318598490803546  0.4996111113490101 -0.0018021229686728
  0.4994363842594285  0.6666373505748633 -0.0002338730846378
  0.6660362021497592  0.8325817528862997  0.0008986003778250
  0.8327239446924727 -0.0007448666038984  0.0007974754284969
  0.1660816712409236 -0.0001408028934206  0.6671975067800565
  0.1660256342392082  0.8330809216310719  0.8339435892566869
  0.3327865589229126 -0.0001678858451653  0.8339119167884513
  0.1659605821437516  0.6662786252687252  0.0008069247124183
  0.3327779589771898  0.8328113109532491  0.0009719693476647
  0.4995140491906198 -0.0008270417216236  0.0008297039412354
  0.1660419941405460 -0.0005574233883719  0.0006172446560023
 
  0.00000000E+00  0.00000000E+00  0.00000000E+00
  0.00000000E+00  0.00000000E+00  0.00000000E+00
  0.00000000E+00  0.00000000E+00  0.00000000E+00
  0.00000000E+00  0.00000000E+00  0.00000000E+00
  0.00000000E+00  0.00000000E+00  0.00000000E+00
  0.00000000E+00  0.00000000E+00  0.00000000E+00
  0.00000000E+00  0.00000000E+00  0.00000000E+00
  0.00000000E+00  0.00000000E+00  0.00000000E+00
  0.00000000E+00  0.00000000E+00  0.00000000E+00
  0.00000000E+00  0.00000000E+00  0.00000000E+00
  0.00000000E+00  0.00000000E+00  0.00000000E+00
  0.00000000E+00  0.00000000E+00  0.00000000E+00
  0.00000000E+00  0.00000000E+00  0.00000000E+00
  0.00000000E+00  0.00000000E+00  0.00000000E+00
  0.00000000E+00  0.00000000E+00  0.00000000E+00
  0.00000000E+00  0.00000000E+00  0.00000000E+00
  0.00000000E+00  0.00000000E+00  0.00000000E+00
  0.00000000E+00  0.00000000E+00  0.00000000E+00
  0.00000000E+00  0.00000000E+00  0.00000000E+00
  0.00000000E+00  0.00000000E+00  0.00000000E+00
  0.00000000E+00  0.00000000E+00  0.00000000E+00
  0.00000000E+00  0.00000000E+00  0.00000000E+00
  0.00000000E+00  0.00000000E+00  0.00000000E+00
  0.00000000E+00  0.00000000E+00  0.00000000E+00
  0.00000000E+00  0.00000000E+00  0.00000000E+00
  0.00000000E+00  0.00000000E+00  0.00000000E+00
  0.00000000E+00  0.00000000E+00  0.00000000E+00
  0.00000000E+00  0.00000000E+00  0.00000000E+00
  0.00000000E+00  0.00000000E+00  0.00000000E+00
  0.00000000E+00  0.00000000E+00  0.00000000E+00
  0.00000000E+00  0.00000000E+00  0.00000000E+00
  0.00000000E+00  0.00000000E+00  0.00000000E+00
  0.00000000E+00  0.00000000E+00  0.00000000E+00
  0.00000000E+00  0.00000000E+00  0.00000000E+00
  0.00000000E+00  0.00000000E+00  0.00000000E+00
  0.00000000E+00  0.00000000E+00  0.00000000E+00
  0.00000000E+00  0.00000000E+00  0.00000000E+00
  0.00000000E+00  0.00000000E+00  0.00000000E+00
  0.00000000E+00  0.00000000E+00  0.00000000E+00
  0.00000000E+00  0.00000000E+00  0.00000000E+00
  0.00000000E+00  0.00000000E+00  0.00000000E+00
  0.00000000E+00  0.00000000E+00  0.00000000E+00
  0.00000000E+00  0.00000000E+00  0.00000000E+00
  0.00000000E+00  0.00000000E+00  0.00000000E+00
  0.00000000E+00  0.00000000E+00  0.00000000E+00
  0.00000000E+00  0.00000000E+00  0.00000000E+00
  0.00000000E+00  0.00000000E+00  0.00000000E+00
  0.00000000E+00  0.00000000E+00  0.00000000E+00
  0.00000000E+00  0.00000000E+00  0.00000000E+00
  0.00000000E+00  0.00000000E+00  0.00000000E+00
  0.00000000E+00  0.00000000E+00  0.00000000E+00
  0.00000000E+00  0.00000000E+00  0.00000000E+00
  0.00000000E+00  0.00000000E+00  0.00000000E+00
  0.00000000E+00  0.00000000E+00  0.00000000E+00
  0.00000000E+00  0.00000000E+00  0.00000000E+00
  0.00000000E+00  0.00000000E+00  0.00000000E+00
  0.00000000E+00  0.00000000E+00  0.00000000E+00
  0.00000000E+00  0.00000000E+00  0.00000000E+00
  0.00000000E+00  0.00000000E+00  0.00000000E+00
  0.00000000E+00  0.00000000E+00  0.00000000E+00
  0.00000000E+00  0.00000000E+00  0.00000000E+00
  0.00000000E+00  0.00000000E+00  0.00000000E+00
  0.00000000E+00  0.00000000E+00  0.00000000E+00
  0.00000000E+00  0.00000000E+00  0.00000000E+00
  0.00000000E+00  0.00000000E+00  0.00000000E+00
  0.00000000E+00  0.00000000E+00  0.00000000E+00
  0.00000000E+00  0.00000000E+00  0.00000000E+00
  0.00000000E+00  0.00000000E+00  0.00000000E+00
  0.00000000E+00  0.00000000E+00  0.00000000E+00
  0.00000000E+00  0.00000000E+00  0.00000000E+00
  0.00000000E+00  0.00000000E+00  0.00000000E+00
  0.00000000E+00  0.00000000E+00  0.00000000E+00
  0.00000000E+00  0.00000000E+00  0.00000000E+00
  0.00000000E+00  0.00000000E+00  0.00000000E+00
  0.00000000E+00  0.00000000E+00  0.00000000E+00
  0.00000000E+00  0.00000000E+00  0.00000000E+00
  0.00000000E+00  0.00000000E+00  0.00000000E+00
  0.00000000E+00  0.00000000E+00  0.00000000E+00
  0.00000000E+00  0.00000000E+00  0.00000000E+00
  0.00000000E+00  0.00000000E+00  0.00000000E+00
  0.00000000E+00  0.00000000E+00  0.00000000E+00
  0.00000000E+00  0.00000000E+00  0.00000000E+00
  0.00000000E+00  0.00000000E+00  0.00000000E+00
  0.00000000E+00  0.00000000E+00  0.00000000E+00
  0.00000000E+00  0.00000000E+00  0.00000000E+00
  0.00000000E+00  0.00000000E+00  0.00000000E+00
  0.00000000E+00  0.00000000E+00  0.00000000E+00
  0.00000000E+00  0.00000000E+00  0.00000000E+00
  0.00000000E+00  0.00000000E+00  0.00000000E+00
  0.00000000E+00  0.00000000E+00  0.00000000E+00
  0.00000000E+00  0.00000000E+00  0.00000000E+00
  0.00000000E+00  0.00000000E+00  0.00000000E+00
  0.00000000E+00  0.00000000E+00  0.00000000E+00
  0.00000000E+00  0.00000000E+00  0.00000000E+00
  0.00000000E+00  0.00000000E+00  0.00000000E+00
  0.00000000E+00  0.00000000E+00  0.00000000E+00
  0.00000000E+00  0.00000000E+00  0.00000000E+00
  0.00000000E+00  0.00000000E+00  0.00000000E+00
  0.00000000E+00  0.00000000E+00  0.00000000E+00
  0.00000000E+00  0.00000000E+00  0.00000000E+00
  0.00000000E+00  0.00000000E+00  0.00000000E+00
  0.00000000E+00  0.00000000E+00  0.00000000E+00
  0.00000000E+00  0.00000000E+00  0.00000000E+00
  0.00000000E+00  0.00000000E+00  0.00000000E+00
  0.00000000E+00  0.00000000E+00  0.00000000E+00
  0.00000000E+00  0.00000000E+00  0.00000000E+00
  0.00000000E+00  0.00000000E+00  0.00000000E+00
  0.00000000E+00  0.00000000E+00  0.00000000E+00
  0.00000000E+00  0.00000000E+00  0.00000000E+00
  0.00000000E+00  0.00000000E+00  0.00000000E+00
  0.00000000E+00  0.00000000E+00  0.00000000E+00
  0.00000000E+00  0.00000000E+00  0.00000000E+00
  0.00000000E+00  0.00000000E+00  0.00000000E+00
  0.00000000E+00  0.00000000E+00  0.00000000E+00
  0.00000000E+00  0.00000000E+00  0.00000000E+00
  0.00000000E+00  0.00000000E+00  0.00000000E+00
  0.00000000E+00  0.00000000E+00  0.00000000E+00
  0.00000000E+00  0.00000000E+00  0.00000000E+00
  0.00000000E+00  0.00000000E+00  0.00000000E+00
  0.00000000E+00  0.00000000E+00  0.00000000E+00
  0.00000000E+00  0.00000000E+00  0.00000000E+00
  0.00000000E+00  0.00000000E+00  0.00000000E+00
  0.00000000E+00  0.00000000E+00  0.00000000E+00
  0.00000000E+00  0.00000000E+00  0.00000000E+00
  0.00000000E+00  0.00000000E+00  0.00000000E+00
  0.00000000E+00  0.00000000E+00  0.00000000E+00
  0.00000000E+00  0.00000000E+00  0.00000000E+00
  0.00000000E+00  0.00000000E+00  0.00000000E+00
  0.00000000E+00  0.00000000E+00  0.00000000E+00
  0.00000000E+00  0.00000000E+00  0.00000000E+00
  0.00000000E+00  0.00000000E+00  0.00000000E+00
  0.00000000E+00  0.00000000E+00  0.00000000E+00
  0.00000000E+00  0.00000000E+00  0.00000000E+00
  0.00000000E+00  0.00000000E+00  0.00000000E+00
  0.00000000E+00  0.00000000E+00  0.00000000E+00
  0.00000000E+00  0.00000000E+00  0.00000000E+00
  0.00000000E+00  0.00000000E+00  0.00000000E+00
  0.00000000E+00  0.00000000E+00  0.00000000E+00
  0.00000000E+00  0.00000000E+00  0.00000000E+00
  0.00000000E+00  0.00000000E+00  0.00000000E+00
  0.00000000E+00  0.00000000E+00  0.00000000E+00
  0.00000000E+00  0.00000000E+00  0.00000000E+00
  0.00000000E+00  0.00000000E+00  0.00000000E+00
  0.00000000E+00  0.00000000E+00  0.00000000E+00
  0.00000000E+00  0.00000000E+00  0.00000000E+00
  0.00000000E+00  0.00000000E+00  0.00000000E+00
  0.00000000E+00  0.00000000E+00  0.00000000E+00
  0.00000000E+00  0.00000000E+00  0.00000000E+00
  0.00000000E+00  0.00000000E+00  0.00000000E+00
  0.00000000E+00  0.00000000E+00  0.00000000E+00
  0.00000000E+00  0.00000000E+00  0.00000000E+00
  0.00000000E+00  0.00000000E+00  0.00000000E+00
  0.00000000E+00  0.00000000E+00  0.00000000E+00
  0.00000000E+00  0.00000000E+00  0.00000000E+00
  0.00000000E+00  0.00000000E+00  0.00000000E+00
  0.00000000E+00  0.00000000E+00  0.00000000E+00
  0.00000000E+00  0.00000000E+00  0.00000000E+00
  0.00000000E+00  0.00000000E+00  0.00000000E+00
  0.00000000E+00  0.00000000E+00  0.00000000E+00
  0.00000000E+00  0.00000000E+00  0.00000000E+00
  0.00000000E+00  0.00000000E+00  0.00000000E+00
  0.00000000E+00  0.00000000E+00  0.00000000E+00
  0.00000000E+00  0.00000000E+00  0.00000000E+00
  0.00000000E+00  0.00000000E+00  0.00000000E+00
  0.00000000E+00  0.00000000E+00  0.00000000E+00
  0.00000000E+00  0.00000000E+00  0.00000000E+00
  0.00000000E+00  0.00000000E+00  0.00000000E+00
  0.00000000E+00  0.00000000E+00  0.00000000E+00
  0.00000000E+00  0.00000000E+00  0.00000000E+00
  0.00000000E+00  0.00000000E+00  0.00000000E+00
  0.00000000E+00  0.00000000E+00  0.00000000E+00
  0.00000000E+00  0.00000000E+00  0.00000000E+00
  0.00000000E+00  0.00000000E+00  0.00000000E+00
  0.00000000E+00  0.00000000E+00  0.00000000E+00
  0.00000000E+00  0.00000000E+00  0.00000000E+00
  0.00000000E+00  0.00000000E+00  0.00000000E+00
  0.00000000E+00  0.00000000E+00  0.00000000E+00
  0.00000000E+00  0.00000000E+00  0.00000000E+00
  0.00000000E+00  0.00000000E+00  0.00000000E+00
  0.00000000E+00  0.00000000E+00  0.00000000E+00
  0.00000000E+00  0.00000000E+00  0.00000000E+00
  0.00000000E+00  0.00000000E+00  0.00000000E+00
  0.00000000E+00  0.00000000E+00  0.00000000E+00
  0.00000000E+00  0.00000000E+00  0.00000000E+00
  0.00000000E+00  0.00000000E+00  0.00000000E+00
  0.00000000E+00  0.00000000E+00  0.00000000E+00
  0.00000000E+00  0.00000000E+00  0.00000000E+00
  0.00000000E+00  0.00000000E+00  0.00000000E+00
  0.00000000E+00  0.00000000E+00  0.00000000E+00
  0.00000000E+00  0.00000000E+00  0.00000000E+00
  0.00000000E+00  0.00000000E+00  0.00000000E+00
  0.00000000E+00  0.00000000E+00  0.00000000E+00
  0.00000000E+00  0.00000000E+00  0.00000000E+00
  0.00000000E+00  0.00000000E+00  0.00000000E+00
  0.00000000E+00  0.00000000E+00  0.00000000E+00
  0.00000000E+00  0.00000000E+00  0.00000000E+00
  0.00000000E+00  0.00000000E+00  0.00000000E+00
  0.00000000E+00  0.00000000E+00  0.00000000E+00
  0.00000000E+00  0.00000000E+00  0.00000000E+00
  0.00000000E+00  0.00000000E+00  0.00000000E+00
  0.00000000E+00  0.00000000E+00  0.00000000E+00
  0.00000000E+00  0.00000000E+00  0.00000000E+00
  0.00000000E+00  0.00000000E+00  0.00000000E+00
  0.00000000E+00  0.00000000E+00  0.00000000E+00
  0.00000000E+00  0.00000000E+00  0.00000000E+00
  0.00000000E+00  0.00000000E+00  0.00000000E+00
  0.00000000E+00  0.00000000E+00  0.00000000E+00
  0.00000000E+00  0.00000000E+00  0.00000000E+00
  0.00000000E+00  0.00000000E+00  0.00000000E+00
  0.00000000E+00  0.00000000E+00  0.00000000E+00
  0.00000000E+00  0.00000000E+00  0.00000000E+00
  0.00000000E+00  0.00000000E+00  0.00000000E+00
  0.00000000E+00  0.00000000E+00  0.00000000E+00
  0.00000000E+00  0.00000000E+00  0.00000000E+00
  0.00000000E+00  0.00000000E+00  0.00000000E+00
  0.00000000E+00  0.00000000E+00  0.00000000E+00
