Se_Cd ~[0.3333,0.3333,0.3333] -4
1.0
   0.0000000000000000    9.8109780000000004    9.8109780000000004
   9.8109780000000004    0.0000000000000000    9.8109780000000004
   9.8109780000000004    9.8109780000000004    0.0000000000000000
Cd Te Se
26 27 1
direct
   0.0000000000000000    0.0000000000000000    0.0000000000000000 Cd
   0.0000000000000000    0.0000000000000000    0.3333330000000000 Cd
   0.0000000000000000    0.0000000000000000    0.6666670000000000 Cd
   0.0000000000000000    0.3333330000000000    0.0000000000000000 Cd
   0.0000000000000000    0.3333330000000000    0.3333330000000000 Cd
   0.0000000000000000    0.3333330000000000    0.6666670000000000 Cd
   0.0000000000000000    0.6666670000000000    0.0000000000000000 Cd
   0.0000000000000000    0.6666670000000000    0.3333330000000000 Cd
   0.0000000000000000    0.6666670000000000    0.6666670000000000 Cd
   0.3333330000000000    0.0000000000000000    0.0000000000000000 Cd
   0.3333330000000000    0.0000000000000000    0.3333330000000000 Cd
   0.3333330000000000    0.0000000000000000    0.6666670000000000 Cd
   0.3333330000000000    0.3333330000000000    0.0000000000000000 Cd
   0.3333330000000000    0.3333330000000000    0.6666670000000000 Cd
   0.3333330000000000    0.6666670000000000    0.0000000000000000 Cd
   0.3333330000000000    0.6666670000000000    0.3333330000000000 Cd
   0.3333330000000000    0.6666670000000000    0.6666670000000000 Cd
   0.6666670000000000    0.0000000000000000    0.0000000000000000 Cd
   0.6666670000000000    0.0000000000000000    0.3333330000000000 Cd
   0.6666670000000000    0.0000000000000000    0.6666670000000000 Cd
   0.6666670000000000    0.3333330000000000    0.0000000000000000 Cd
   0.6666670000000000    0.3333330000000000    0.3333330000000000 Cd
   0.6666670000000000    0.3333330000000000    0.6666670000000000 Cd
   0.6666670000000000    0.6666670000000000    0.0000000000000000 Cd
   0.6666670000000000    0.6666670000000000    0.3333330000000000 Cd
   0.6666670000000000    0.6666670000000000    0.6666670000000000 Cd
   0.0833330000000000    0.0833330000000000    0.0833330000000000 Te
   0.0833330000000000    0.0833330000000000    0.4166670000000000 Te
   0.0833330000000000    0.0833330000000000    0.7500000000000000 Te
   0.0833330000000000    0.4166670000000000    0.0833330000000000 Te
   0.0833330000000000    0.4166670000000000    0.4166670000000000 Te
   0.0833330000000000    0.4166670000000000    0.7500000000000000 Te
   0.0833330000000000    0.7500000000000000    0.0833330000000000 Te
   0.0833330000000000    0.7500000000000000    0.4166670000000000 Te
   0.0833330000000000    0.7500000000000000    0.7500000000000000 Te
   0.4166670000000000    0.0833330000000000    0.0833330000000000 Te
   0.4166670000000000    0.0833330000000000    0.4166670000000000 Te
   0.4166670000000000    0.0833330000000000    0.7500000000000000 Te
   0.4166670000000000    0.4166670000000000    0.0833330000000000 Te
   0.4166670000000000    0.4166670000000000    0.4166670000000000 Te
   0.4166670000000000    0.4166670000000000    0.7500000000000000 Te
   0.4166670000000000    0.7500000000000000    0.0833330000000000 Te
   0.4166670000000000    0.7500000000000000    0.4166670000000000 Te
   0.4166670000000000    0.7500000000000000    0.7500000000000000 Te
   0.7500000000000000    0.0833330000000000    0.0833330000000000 Te
   0.7500000000000000    0.0833330000000000    0.4166670000000000 Te
   0.7500000000000000    0.0833330000000000    0.7500000000000000 Te
   0.7500000000000000    0.4166670000000000    0.0833330000000000 Te
   0.7500000000000000    0.4166670000000000    0.4166670000000000 Te
   0.7500000000000000    0.4166670000000000    0.7500000000000000 Te
   0.7500000000000000    0.7500000000000000    0.0833330000000000 Te
   0.7500000000000000    0.7500000000000000    0.4166670000000000 Te
   0.7500000000000000    0.7500000000000000    0.7500000000000000 Te
   0.3333330000000000    0.3333330000000000    0.3333330000000000 Se
