0.0% N(Distort)=1 ~[0.5,0.5,0.5]        
   1.00000000000000     
    12.5998379999999983    0.0000000000000004    0.0000000000000004
     0.0000000000000004   12.5998379999999983   -0.0000000000000004
    -0.0000000000000004   -0.0000000000000004   12.5998379999999983
   Mg   O 
   109   107
Direct
  0.6666757043388319 -0.0004288907017417  0.0004235146056350
  0.8332547482839621  0.1658642228175935  0.0005202368339703
  0.8331069915567901 -0.0004558761302032  0.1667973446995323
  0.3322041446372434 -0.0004184012003448  0.0004198641702534
  0.4994639708532856  0.1647262016901365 -0.0010211285589711
  0.6670493651866671  0.3321688721573806  0.9992807429699411
  0.8336487504271962  0.4994020445154910  0.0001970438521881
  0.4993033712674846 -0.0002072236523701  0.1662452870703542
  0.6668655586795539  0.1653652619043200  0.1665519114818269
  0.8330998803242978  0.3322824188565800  0.1667883341528411
  0.6665281503866294  0.0006640425842775  0.3333595487310367
  0.8333474389742914  0.1653816628089113  0.3330196551995686
  0.8336421646959036 -0.0001941627376338  0.5005897551159196
  0.9994695232040379 -0.0004099242995295  0.0004403703836324
  0.1658037822407052  0.1658971683780134  0.0001229365343211
  0.3319780034368775  0.3320772587524663 -0.0014026693222591
  0.4992063113209467  0.4993065443405265  0.9958585637686608
  0.6665526495584613  0.6666334699235226 -0.0006802411355826
  0.8331140017637050  0.8332257049580445  0.0004495377772137
  0.1657519929365514 -0.0005106687348743  0.1666490092724360
  0.3319146197283371  0.1653493929331944  0.1659964330235013
  0.4997003717056109  0.3261819696759511  0.1583649489942492
  0.6672838600981342  0.4990674248996325  0.1619593249640002
  0.8342769054378331  0.6665156782074647  0.1656109389584420
  0.3320691462250334  0.0007071870164452  0.3328309602728584
  0.4991496775700464  0.1643743686409141  0.3319234408492503
  0.6664091438327532  0.3308782191728104  0.3334765490653425
  0.8379033038431856  0.4990920160622840  0.3325879094019497
  0.4992095513045302  0.0040613588198368  0.5006695085335865
  0.6679636447491344  0.1643562372626415  0.5007253467029641
  0.8415150347073653  0.3262034243689917  0.5001941353630761
  0.6670425507531003  0.0006961754653326  0.6678057480292332
  0.8338792680267639  0.1653528950899573  0.6679789348862524
  0.8332526450251039 -0.0004943126808013  0.8341372336492748
 -0.0005299345369075  0.3322974428882197  0.0004303231265762
  0.1645990183058523  0.4995734272509394 -0.0010420035940584
  0.3320653936169341  0.6671507415862503 -0.0007344346198041
  0.4993023023721083  0.8337419246209783  0.0001772030666113
 -0.0006137586431556  0.1658728530986481  0.1666570253498883
  0.1652285615340972  0.3320154974963332  0.1659929278888743
  0.3260076395225147  0.4998078957024908  0.1583201094145590
  0.4989724245095001  0.6673849814815953  0.1619050562021949
  0.6664112481566485  0.8343666299129551  0.1656024546181739
  0.9994641678672540 -0.0004195693252260  0.3332255908711709
  0.1652667082399243  0.1653742162469140  0.3329564026430211
  0.3288829885942450  0.3290450441995087  0.3332082964605076
  0.4814974316123842  0.4818519745293796  0.2981182396053388
  0.6727343694737823  0.6727832047705457  0.3271393039804634
  0.8342725328081753  0.8343628409783410  0.3334753190457092
  0.1646338271437782  0.0010089179295896  0.5004255314032181
  0.3313138631362523  0.1653826946400103  0.5004960242039341
  0.4988926736978361  0.3222082133207107  0.5009886791637596
  0.7017651546300266  0.4818743041420683  0.5183309018362763
  0.8379471022079223  0.6674149072384410  0.5008988091425821
  0.3319745787906394  0.0013755649016321  0.6679149504318203
  0.4993944726237153  0.1653852717488613  0.6685704975510541
  0.6666806886499178  0.3290564233590383  0.6709703091838080
  0.8415467263340591  0.4998169345906416  0.6738663647075321
  0.4994525707417803  0.0010100252856741  0.8352522196686415
  0.6669352753874679  0.1653703023502938  0.8346238942070348
  0.8339031556437507  0.3320118673445335  0.8346671947471476
 -0.0005430869718855  0.6667921696534955  0.0004146912513792
  0.1657536112516442  0.8333597274535185  0.0005066678911155
 -0.0003204594693023  0.4994012290959410  0.1662302295083075
  0.1652244000031702  0.6669940851020919  0.1665293762550775
  0.3321772161691054  0.8331959785991098  0.1667744154834087
  0.0005977194335061  0.3322035106013326  0.3328446516141695
  0.1642114046968705  0.4992802709281100  0.3319035784506377
  0.3306779055664795  0.6665154347980180  0.3334578439725174
  0.4989646282146977  0.8380391487859175  0.3325886175624034
  0.0009009210814096  0.1647402944576471  0.5004459728494854
  0.1652686240376759  0.3314292006071784  0.5004970247895367
  0.3220769753447680  0.4990284466480204  0.5009685020995693
  0.4817760779057313  0.7016555748143148  0.5181358984001299
  0.6672798423992152  0.8380367781302959  0.5008984552958277
  0.9994730908361688 -0.0004207036235473  0.6676994048130551
  0.1661242804569131  0.1662261572424516  0.6676120578796136
  0.3325124051473488  0.3326221678336225  0.6673660684181375
  0.4989053348763849  0.4990193756095113  0.6777887780761557
  0.6664264854174370  0.6665278133732179  0.6691868734522344
  0.8331052659146190  0.8332229287222640  0.6676992819573788
  0.1657846643633661 -0.0001136366581334  0.8341070287945206
  0.3322962518161610  0.1662187729902688  0.8337713422454708
  0.4994015163592944  0.3314081281516225  0.8345995120992949
  0.6679871825570600  0.4992681908184071  0.8356543824625129
  0.8333507031703667  0.6669997878641747  0.8346250582852431
 -0.0005603129926475  0.8332132120357144  0.1667966406083424
  0.0005327196447498  0.6666529335116048  0.3333574832369808
  0.1652388865990866  0.8334495930329184  0.3329951820673485
  0.0039857087851615  0.4993378312005439  0.5006843925998657
  0.1642392529858549  0.6680942235353947  0.5007158074234053
  0.3261023143722996  0.8415619631373539  0.5001871774202180
  0.0012787809247259  0.3320822158956388  0.6679201976721419
  0.1652823999423136  0.4995119202185680  0.6685725113239065
  0.3289430755352992  0.6668134558499882  0.6709248370685336
  0.4996805478932785  0.8415670775257197  0.6737860782412290
 -0.0002108147815643  0.1658939510031070  0.8340992096802131
  0.1661292246124584  0.3323904476167546  0.8337748280635389
  0.3313010543275926  0.4995057541995541  0.8345812148417990
  0.4991684967482984  0.6680801512509861  0.8356337274650640
  0.6668813731949267  0.8334582836718653  0.8346265779515435
 -0.0003046255888019  0.8337636707634901  0.5005871223857279
  0.0005930738129618  0.6671831909092539  0.6678059760882825
  0.1652379487407496  0.8340038207471511  0.6679750121722425
  0.0009267036733578  0.4995546819771423  0.8352647659273552
  0.1652660486045667  0.6670402491021779  0.8345987155272090
  0.3319094205951746  0.8340005300790448  0.8346521317448935
 -0.0006178304013290  0.8333652159688746  0.8341458541795279
  0.5571818649665831  0.5569797852008889  0.4426693945280350
  0.8323084385731737  0.1665546828873518  0.1675924643052409
 -0.0009631371868851  0.3331041155300128  0.1673108258223258
  0.9992052112641280  0.1662778729771560  0.3337769551919870
  0.4994815594058566  0.1656553968480838  0.1663955470684456
  0.6647162153900993  0.3343364446519933  0.1680380224074918
  0.8309281076590131  0.4997048101930962  0.1689452158833332
 -0.0008826752334811  0.6659846816664877  0.1675370843719074
  0.6657123022655171  0.1670845080903096  0.3341715046623632
  0.8318553051426939  0.3343563786794158  0.3351660490210412
  0.0006305553412970  0.4995688090617740  0.3330899779504959
  0.8334981603863246  0.1656679205284893  0.5003868539805637
  0.0018816511153000  0.3318671642708270  0.5002791241333037
 -0.0003136540826712  0.1663618067773739  0.6669172245130044
  0.1663245846858513  0.1664305911111114  0.1670458914133620
  0.3341669823794059  0.3342879818961405  0.1669292656824953
  0.4990733493626255  0.4992116374712884  0.1544317511179019
  0.6646725762009097  0.6647735202171912  0.1678133421612782
  0.8319155370129990  0.8320245498822070  0.1679785994423588
  0.9992195526305631 -0.0006608447365246  0.1673003282473020
  0.3328772417744693  0.1664625165025123  0.3335898770740745
  0.4983669396740591  0.3327748453611509  0.3342686488383925
  0.6571815927532964  0.4991229603294071  0.3427286546214021
  0.8320495059246797  0.6647814542745711  0.3352210755655964
 -0.0008858888667532  0.8324692331072100  0.3340002784490497
  0.4997660171932433  0.1654247924915858  0.5001149567944312
  0.6656440628314219  0.3327575134696705  0.5015098100274762
  0.8454194200116871  0.4992364387045578  0.5008040304865159
  0.0006492116375469  0.6669133068643074  0.5004387048502789
  0.6663005377170190  0.1664657254811409  0.6669989038672418
  0.8329548170320271  0.3342999472643880  0.6657269318275981
  0.0018956602287140  0.4997427301958380  0.6681573547495990
  0.8328607449338236  0.1664277901502421  0.8335758200756870
 -0.0002949102613361  0.3330713991485534  0.8336471975489107
 -0.0006369297674750  0.1662306551045883  0.0005460405707500
  0.1654957775477922  0.4996158409472807  0.1663478663989778
  0.3342290108669974  0.6648170255902085  0.1680165805458897
  0.4995966528596161  0.8309997171742984  0.1689583766293206
  0.6658737571635588 -0.0007756588992373  0.1675627177747518
  0.1663146029357592  0.3329871200315302  0.3335867948966810
  0.3324445422093268  0.4985074103733492  0.3342237888987062
  0.4989972049312446  0.6569900581915923  0.3428254970106880
  0.6646336202967659  0.8321125455410389  0.3352195258244349
  0.8323324396319188 -0.0007742397249519  0.3340157229507001
  0.1666889585185575  0.1667888164548709  0.5001317478717950
  0.3355485613713064  0.3356780241848488  0.4996780747843406
  0.6570129398087005  0.6570237876486905  0.5008628718159269
  0.8309129228852908  0.8310266165228530  0.5002672044669739
  0.9991214329421962 -0.0007689568736924  0.5003499198126421
  0.3334347142428586  0.1674436364140592  0.6664629590811731
  0.5002029696337978  0.3356705056666601  0.6643322341176581
  0.6656624549123402  0.4985078780578244  0.6673845361798072
  0.8318586251447658  0.6648327829556548  0.6656340613362508
 -0.0009642700562840  0.8327073722232672  0.6668946343580571
  0.4997661700932548  0.1667791301631459  0.8332028131997763
  0.6662964218598805  0.3329798094813550  0.8335483913118344
  0.8335159040820227  0.4996077602390416  0.8343744323709059
 -0.0008027255179504  0.6662395311414101  0.8337147898272608
  0.6661295393090338  0.1662609671434061  0.0006883251900524
  0.8325807844212419  0.3330991547834027  0.0008666803640361
 -0.0008733381807988  0.4996474844046414  0.0007547246148936
  0.1664576749262659  0.8324136190295880  0.1675646137584660
  0.3329920626613240 -0.0008636018815512  0.1673050540726260
  0.1669162355046594  0.6658389031434820  0.3341492056864157
  0.3342482390306840  0.8319262141914033  0.3351372970689778
  0.4994500978224571  0.0007536379219521  0.3330913991904201
  0.1653043137794564  0.4998927710336308  0.5001245736875565
  0.3325786820117430  0.6657447768932740  0.5014782192232342
  0.4990929182354619  0.8454097342254772  0.5007537914914982
  0.6667642143908310  0.0007492818811220  0.5004134682408672
  0.1673074778806888  0.3335266871176967  0.6664668760216290
  0.3355492194080177  0.5003177984318544  0.6643103394673777
  0.4984034344568978  0.6657336450294198  0.6673130233753471
  0.6647336151955658  0.8319396738451347  0.6656154387627006
  0.8325867746995999 -0.0008525790712491  0.6668878555208823
  0.1663987277448146  0.1664902497076961  0.8335107126889364
  0.3334324392530131  0.3335299059650277  0.8325549826075223
  0.4997567750300820  0.4998784370381761  0.8345516805910389
  0.6657411314697875  0.6658401757625235  0.8329403766915925
  0.8323249287825226  0.8324275959125369  0.8334369424702917
 -0.0006423431897210 -0.0005316858440047  0.8337834859342356
  0.3329780657516563  0.1663698728275626  0.0001974626057880
  0.4996139472721167  0.3318521522256380  0.9979865479527090
  0.6667779245400624  0.4995581089662064 -0.0007774133160962
  0.8323605497728803  0.6659902634569095  0.0007564686003409
 -0.0007852664521401  0.8327266662904708  0.0006816665035754
  0.1661828137114318 -0.0006830303579173  0.3337631726566081
  0.1655490334869561  0.8336195361708700  0.5003698986122398
  0.3317640943882336  0.0019644240927948  0.5002586488235087
  0.1663422909863275  0.6664237055048321  0.6670127038507878
  0.3341625324336598  0.8330657080626390  0.6657201491381920
  0.4996122515694182  0.0019758447579963  0.6681196952238478
  0.1666939351570112  0.4998656852902922  0.8331977982735564
  0.3328753765975248  0.6664106386466712  0.8335305311298653
  0.4995027944268619  0.8336107797527438  0.8343298608324387
  0.6661264843806853 -0.0006807703264958  0.8337157051411496
  0.1662530104396862  0.3330859182039579  0.0001866418996367
  0.3317317035384899  0.4997201650533127 -0.0020320117081496
  0.4994539338122407  0.6668894357668831 -0.0007966559795322
  0.6658890675866993  0.8324610747302756  0.0007662245166146
  0.8326134706040775 -0.0006695349576719  0.0006845553239080
  0.1662536455613777 -0.0001928189319568  0.6669160717443806
  0.1663081206494582  0.8329621422600941  0.8335799012511464
  0.3329580351480847 -0.0001951404822613  0.8336451736542579
  0.1661570777793123  0.6662278155489895  0.0006619266050869
  0.3329991768501569  0.8326788044327038  0.0008512062181857
  0.4995533702682184 -0.0007788499307035  0.0007785802057590
  0.1661211621569054 -0.0005319930431289  0.0005430274713736
 
  0.00000000E+00  0.00000000E+00  0.00000000E+00
  0.00000000E+00  0.00000000E+00  0.00000000E+00
  0.00000000E+00  0.00000000E+00  0.00000000E+00
  0.00000000E+00  0.00000000E+00  0.00000000E+00
  0.00000000E+00  0.00000000E+00  0.00000000E+00
  0.00000000E+00  0.00000000E+00  0.00000000E+00
  0.00000000E+00  0.00000000E+00  0.00000000E+00
  0.00000000E+00  0.00000000E+00  0.00000000E+00
  0.00000000E+00  0.00000000E+00  0.00000000E+00
  0.00000000E+00  0.00000000E+00  0.00000000E+00
  0.00000000E+00  0.00000000E+00  0.00000000E+00
  0.00000000E+00  0.00000000E+00  0.00000000E+00
  0.00000000E+00  0.00000000E+00  0.00000000E+00
  0.00000000E+00  0.00000000E+00  0.00000000E+00
  0.00000000E+00  0.00000000E+00  0.00000000E+00
  0.00000000E+00  0.00000000E+00  0.00000000E+00
  0.00000000E+00  0.00000000E+00  0.00000000E+00
  0.00000000E+00  0.00000000E+00  0.00000000E+00
  0.00000000E+00  0.00000000E+00  0.00000000E+00
  0.00000000E+00  0.00000000E+00  0.00000000E+00
  0.00000000E+00  0.00000000E+00  0.00000000E+00
  0.00000000E+00  0.00000000E+00  0.00000000E+00
  0.00000000E+00  0.00000000E+00  0.00000000E+00
  0.00000000E+00  0.00000000E+00  0.00000000E+00
  0.00000000E+00  0.00000000E+00  0.00000000E+00
  0.00000000E+00  0.00000000E+00  0.00000000E+00
  0.00000000E+00  0.00000000E+00  0.00000000E+00
  0.00000000E+00  0.00000000E+00  0.00000000E+00
  0.00000000E+00  0.00000000E+00  0.00000000E+00
  0.00000000E+00  0.00000000E+00  0.00000000E+00
  0.00000000E+00  0.00000000E+00  0.00000000E+00
  0.00000000E+00  0.00000000E+00  0.00000000E+00
  0.00000000E+00  0.00000000E+00  0.00000000E+00
  0.00000000E+00  0.00000000E+00  0.00000000E+00
  0.00000000E+00  0.00000000E+00  0.00000000E+00
  0.00000000E+00  0.00000000E+00  0.00000000E+00
  0.00000000E+00  0.00000000E+00  0.00000000E+00
  0.00000000E+00  0.00000000E+00  0.00000000E+00
  0.00000000E+00  0.00000000E+00  0.00000000E+00
  0.00000000E+00  0.00000000E+00  0.00000000E+00
  0.00000000E+00  0.00000000E+00  0.00000000E+00
  0.00000000E+00  0.00000000E+00  0.00000000E+00
  0.00000000E+00  0.00000000E+00  0.00000000E+00
  0.00000000E+00  0.00000000E+00  0.00000000E+00
  0.00000000E+00  0.00000000E+00  0.00000000E+00
  0.00000000E+00  0.00000000E+00  0.00000000E+00
  0.00000000E+00  0.00000000E+00  0.00000000E+00
  0.00000000E+00  0.00000000E+00  0.00000000E+00
  0.00000000E+00  0.00000000E+00  0.00000000E+00
  0.00000000E+00  0.00000000E+00  0.00000000E+00
  0.00000000E+00  0.00000000E+00  0.00000000E+00
  0.00000000E+00  0.00000000E+00  0.00000000E+00
  0.00000000E+00  0.00000000E+00  0.00000000E+00
  0.00000000E+00  0.00000000E+00  0.00000000E+00
  0.00000000E+00  0.00000000E+00  0.00000000E+00
  0.00000000E+00  0.00000000E+00  0.00000000E+00
  0.00000000E+00  0.00000000E+00  0.00000000E+00
  0.00000000E+00  0.00000000E+00  0.00000000E+00
  0.00000000E+00  0.00000000E+00  0.00000000E+00
  0.00000000E+00  0.00000000E+00  0.00000000E+00
  0.00000000E+00  0.00000000E+00  0.00000000E+00
  0.00000000E+00  0.00000000E+00  0.00000000E+00
  0.00000000E+00  0.00000000E+00  0.00000000E+00
  0.00000000E+00  0.00000000E+00  0.00000000E+00
  0.00000000E+00  0.00000000E+00  0.00000000E+00
  0.00000000E+00  0.00000000E+00  0.00000000E+00
  0.00000000E+00  0.00000000E+00  0.00000000E+00
  0.00000000E+00  0.00000000E+00  0.00000000E+00
  0.00000000E+00  0.00000000E+00  0.00000000E+00
  0.00000000E+00  0.00000000E+00  0.00000000E+00
  0.00000000E+00  0.00000000E+00  0.00000000E+00
  0.00000000E+00  0.00000000E+00  0.00000000E+00
  0.00000000E+00  0.00000000E+00  0.00000000E+00
  0.00000000E+00  0.00000000E+00  0.00000000E+00
  0.00000000E+00  0.00000000E+00  0.00000000E+00
  0.00000000E+00  0.00000000E+00  0.00000000E+00
  0.00000000E+00  0.00000000E+00  0.00000000E+00
  0.00000000E+00  0.00000000E+00  0.00000000E+00
  0.00000000E+00  0.00000000E+00  0.00000000E+00
  0.00000000E+00  0.00000000E+00  0.00000000E+00
  0.00000000E+00  0.00000000E+00  0.00000000E+00
  0.00000000E+00  0.00000000E+00  0.00000000E+00
  0.00000000E+00  0.00000000E+00  0.00000000E+00
  0.00000000E+00  0.00000000E+00  0.00000000E+00
  0.00000000E+00  0.00000000E+00  0.00000000E+00
  0.00000000E+00  0.00000000E+00  0.00000000E+00
  0.00000000E+00  0.00000000E+00  0.00000000E+00
  0.00000000E+00  0.00000000E+00  0.00000000E+00
  0.00000000E+00  0.00000000E+00  0.00000000E+00
  0.00000000E+00  0.00000000E+00  0.00000000E+00
  0.00000000E+00  0.00000000E+00  0.00000000E+00
  0.00000000E+00  0.00000000E+00  0.00000000E+00
  0.00000000E+00  0.00000000E+00  0.00000000E+00
  0.00000000E+00  0.00000000E+00  0.00000000E+00
  0.00000000E+00  0.00000000E+00  0.00000000E+00
  0.00000000E+00  0.00000000E+00  0.00000000E+00
  0.00000000E+00  0.00000000E+00  0.00000000E+00
  0.00000000E+00  0.00000000E+00  0.00000000E+00
  0.00000000E+00  0.00000000E+00  0.00000000E+00
  0.00000000E+00  0.00000000E+00  0.00000000E+00
  0.00000000E+00  0.00000000E+00  0.00000000E+00
  0.00000000E+00  0.00000000E+00  0.00000000E+00
  0.00000000E+00  0.00000000E+00  0.00000000E+00
  0.00000000E+00  0.00000000E+00  0.00000000E+00
  0.00000000E+00  0.00000000E+00  0.00000000E+00
  0.00000000E+00  0.00000000E+00  0.00000000E+00
  0.00000000E+00  0.00000000E+00  0.00000000E+00
  0.00000000E+00  0.00000000E+00  0.00000000E+00
  0.00000000E+00  0.00000000E+00  0.00000000E+00
  0.00000000E+00  0.00000000E+00  0.00000000E+00
  0.00000000E+00  0.00000000E+00  0.00000000E+00
  0.00000000E+00  0.00000000E+00  0.00000000E+00
  0.00000000E+00  0.00000000E+00  0.00000000E+00
  0.00000000E+00  0.00000000E+00  0.00000000E+00
  0.00000000E+00  0.00000000E+00  0.00000000E+00
  0.00000000E+00  0.00000000E+00  0.00000000E+00
  0.00000000E+00  0.00000000E+00  0.00000000E+00
  0.00000000E+00  0.00000000E+00  0.00000000E+00
  0.00000000E+00  0.00000000E+00  0.00000000E+00
  0.00000000E+00  0.00000000E+00  0.00000000E+00
  0.00000000E+00  0.00000000E+00  0.00000000E+00
  0.00000000E+00  0.00000000E+00  0.00000000E+00
  0.00000000E+00  0.00000000E+00  0.00000000E+00
  0.00000000E+00  0.00000000E+00  0.00000000E+00
  0.00000000E+00  0.00000000E+00  0.00000000E+00
  0.00000000E+00  0.00000000E+00  0.00000000E+00
  0.00000000E+00  0.00000000E+00  0.00000000E+00
  0.00000000E+00  0.00000000E+00  0.00000000E+00
  0.00000000E+00  0.00000000E+00  0.00000000E+00
  0.00000000E+00  0.00000000E+00  0.00000000E+00
  0.00000000E+00  0.00000000E+00  0.00000000E+00
  0.00000000E+00  0.00000000E+00  0.00000000E+00
  0.00000000E+00  0.00000000E+00  0.00000000E+00
  0.00000000E+00  0.00000000E+00  0.00000000E+00
  0.00000000E+00  0.00000000E+00  0.00000000E+00
  0.00000000E+00  0.00000000E+00  0.00000000E+00
  0.00000000E+00  0.00000000E+00  0.00000000E+00
  0.00000000E+00  0.00000000E+00  0.00000000E+00
  0.00000000E+00  0.00000000E+00  0.00000000E+00
  0.00000000E+00  0.00000000E+00  0.00000000E+00
  0.00000000E+00  0.00000000E+00  0.00000000E+00
  0.00000000E+00  0.00000000E+00  0.00000000E+00
  0.00000000E+00  0.00000000E+00  0.00000000E+00
  0.00000000E+00  0.00000000E+00  0.00000000E+00
  0.00000000E+00  0.00000000E+00  0.00000000E+00
  0.00000000E+00  0.00000000E+00  0.00000000E+00
  0.00000000E+00  0.00000000E+00  0.00000000E+00
  0.00000000E+00  0.00000000E+00  0.00000000E+00
  0.00000000E+00  0.00000000E+00  0.00000000E+00
  0.00000000E+00  0.00000000E+00  0.00000000E+00
  0.00000000E+00  0.00000000E+00  0.00000000E+00
  0.00000000E+00  0.00000000E+00  0.00000000E+00
  0.00000000E+00  0.00000000E+00  0.00000000E+00
  0.00000000E+00  0.00000000E+00  0.00000000E+00
  0.00000000E+00  0.00000000E+00  0.00000000E+00
  0.00000000E+00  0.00000000E+00  0.00000000E+00
  0.00000000E+00  0.00000000E+00  0.00000000E+00
  0.00000000E+00  0.00000000E+00  0.00000000E+00
  0.00000000E+00  0.00000000E+00  0.00000000E+00
  0.00000000E+00  0.00000000E+00  0.00000000E+00
  0.00000000E+00  0.00000000E+00  0.00000000E+00
  0.00000000E+00  0.00000000E+00  0.00000000E+00
  0.00000000E+00  0.00000000E+00  0.00000000E+00
  0.00000000E+00  0.00000000E+00  0.00000000E+00
  0.00000000E+00  0.00000000E+00  0.00000000E+00
  0.00000000E+00  0.00000000E+00  0.00000000E+00
  0.00000000E+00  0.00000000E+00  0.00000000E+00
  0.00000000E+00  0.00000000E+00  0.00000000E+00
  0.00000000E+00  0.00000000E+00  0.00000000E+00
  0.00000000E+00  0.00000000E+00  0.00000000E+00
  0.00000000E+00  0.00000000E+00  0.00000000E+00
  0.00000000E+00  0.00000000E+00  0.00000000E+00
  0.00000000E+00  0.00000000E+00  0.00000000E+00
  0.00000000E+00  0.00000000E+00  0.00000000E+00
  0.00000000E+00  0.00000000E+00  0.00000000E+00
  0.00000000E+00  0.00000000E+00  0.00000000E+00
  0.00000000E+00  0.00000000E+00  0.00000000E+00
  0.00000000E+00  0.00000000E+00  0.00000000E+00
  0.00000000E+00  0.00000000E+00  0.00000000E+00
  0.00000000E+00  0.00000000E+00  0.00000000E+00
  0.00000000E+00  0.00000000E+00  0.00000000E+00
  0.00000000E+00  0.00000000E+00  0.00000000E+00
  0.00000000E+00  0.00000000E+00  0.00000000E+00
  0.00000000E+00  0.00000000E+00  0.00000000E+00
  0.00000000E+00  0.00000000E+00  0.00000000E+00
  0.00000000E+00  0.00000000E+00  0.00000000E+00
  0.00000000E+00  0.00000000E+00  0.00000000E+00
  0.00000000E+00  0.00000000E+00  0.00000000E+00
  0.00000000E+00  0.00000000E+00  0.00000000E+00
  0.00000000E+00  0.00000000E+00  0.00000000E+00
  0.00000000E+00  0.00000000E+00  0.00000000E+00
  0.00000000E+00  0.00000000E+00  0.00000000E+00
  0.00000000E+00  0.00000000E+00  0.00000000E+00
  0.00000000E+00  0.00000000E+00  0.00000000E+00
  0.00000000E+00  0.00000000E+00  0.00000000E+00
  0.00000000E+00  0.00000000E+00  0.00000000E+00
  0.00000000E+00  0.00000000E+00  0.00000000E+00
  0.00000000E+00  0.00000000E+00  0.00000000E+00
  0.00000000E+00  0.00000000E+00  0.00000000E+00
  0.00000000E+00  0.00000000E+00  0.00000000E+00
  0.00000000E+00  0.00000000E+00  0.00000000E+00
  0.00000000E+00  0.00000000E+00  0.00000000E+00
  0.00000000E+00  0.00000000E+00  0.00000000E+00
  0.00000000E+00  0.00000000E+00  0.00000000E+00
  0.00000000E+00  0.00000000E+00  0.00000000E+00
  0.00000000E+00  0.00000000E+00  0.00000000E+00
  0.00000000E+00  0.00000000E+00  0.00000000E+00
  0.00000000E+00  0.00000000E+00  0.00000000E+00
  0.00000000E+00  0.00000000E+00  0.00000000E+00
  0.00000000E+00  0.00000000E+00  0.00000000E+00
  0.00000000E+00  0.00000000E+00  0.00000000E+00
  0.00000000E+00  0.00000000E+00  0.00000000E+00
  0.00000000E+00  0.00000000E+00  0.00000000E+00
  0.00000000E+00  0.00000000E+00  0.00000000E+00
  0.00000000E+00  0.00000000E+00  0.00000000E+00
  0.00000000E+00  0.00000000E+00  0.00000000E+00
