KPOINTS from doped, with reciprocal_density = 730/Å⁻³
0
Gamma
16 16 16
