Te_i_C3v ~[0.5417,0.5417,0.5417] +1
1.0
   0.0000000000000000    9.8109779999999986    9.8109779999999986
   9.8109779999999986    0.0000000000000000    9.8109779999999986
   9.8109779999999986    9.8109779999999986    0.0000000000000000
Cd Te
27 28
direct
   0.0000000000000000    0.0000000000000000    0.0000000000000000 Cd
   0.0000000000000000    1.0000000000000000    0.3333333333333333 Cd
   0.0000000000000000    1.0000000000000000    0.6666666666666666 Cd
   0.0000000000000000    0.3333333333333333    1.0000000000000000 Cd
   0.0000000000000000    0.3333333333333333    0.3333333333333333 Cd
   0.0000000000000000    0.3333333333333333    0.6666666666666667 Cd
   0.0000000000000000    0.6666666666666666    1.0000000000000000 Cd
   0.0000000000000000    0.6666666666666666    0.3333333333333333 Cd
   0.0000000000000000    0.6666666666666666    0.6666666666666666 Cd
   0.3333333333333333    0.0000000000000000    1.0000000000000000 Cd
   0.3333333333333334    1.0000000000000000    0.3333333333333333 Cd
   0.3333333333333334    1.0000000000000000    0.6666666666666667 Cd
   0.3333333333333333    0.3333333333333333    1.0000000000000000 Cd
   0.3333333333333334    0.3333333333333333    0.3333333333333333 Cd
   0.3333333333333334    0.3333333333333333    0.6666666666666666 Cd
   0.3333333333333334    0.6666666666666666    1.0000000000000000 Cd
   0.3333333333333334    0.6666666666666666    0.3333333333333334 Cd
   0.3333333333333334    0.6666666666666666    0.6666666666666667 Cd
   0.6666666666666666    0.0000000000000000    1.0000000000000000 Cd
   0.6666666666666667    1.0000000000000000    0.3333333333333333 Cd
   0.6666666666666667    1.0000000000000000    0.6666666666666666 Cd
   0.6666666666666667    0.3333333333333333    1.0000000000000000 Cd
   0.6666666666666667    0.3333333333333333    0.3333333333333334 Cd
   0.6666666666666666    0.3333333333333334    0.6666666666666667 Cd
   0.6666666666666666    0.6666666666666666    1.0000000000000000 Cd
   0.6666666666666666    0.6666666666666666    0.3333333333333333 Cd
   0.6666666666666667    0.6666666666666666    0.6666666666666666 Cd
   0.5416666666666665    0.5416666666666666    0.5416666666666667 Te
   0.0833333333333333    0.0833333333333333    0.0833333333333333 Te
   0.0833333333333334    0.0833333333333333    0.4166666666666666 Te
   0.0833333333333334    0.0833333333333333    0.7499999999999999 Te
   0.0833333333333334    0.4166666666666667    0.0833333333333334 Te
   0.0833333333333334    0.4166666666666666    0.4166666666666666 Te
   0.0833333333333333    0.4166666666666667    0.7500000000000000 Te
   0.0833333333333334    0.7499999999999999    0.0833333333333334 Te
   0.0833333333333333    0.7500000000000000    0.4166666666666667 Te
   0.0833333333333333    0.7500000000000000    0.7500000000000001 Te
   0.4166666666666667    0.0833333333333334    0.0833333333333334 Te
   0.4166666666666667    0.0833333333333334    0.4166666666666666 Te
   0.4166666666666667    0.0833333333333333    0.7500000000000000 Te
   0.4166666666666667    0.4166666666666666    0.0833333333333334 Te
   0.4166666666666667    0.4166666666666666    0.4166666666666666 Te
   0.4166666666666667    0.4166666666666666    0.7500000000000001 Te
   0.4166666666666667    0.7500000000000000    0.0833333333333332 Te
   0.4166666666666667    0.7500000000000001    0.4166666666666666 Te
   0.4166666666666667    0.7500000000000000    0.7500000000000001 Te
   0.7500000000000000    0.0833333333333333    0.0833333333333334 Te
   0.7500000000000000    0.0833333333333333    0.4166666666666667 Te
   0.7500000000000000    0.0833333333333333    0.7500000000000001 Te
   0.7500000000000000    0.4166666666666667    0.0833333333333332 Te
   0.7500000000000001    0.4166666666666666    0.4166666666666666 Te
   0.7500000000000000    0.4166666666666667    0.7500000000000001 Te
   0.7500000000000000    0.7500000000000000    0.0833333333333332 Te
   0.7500000000000000    0.7500000000000000    0.4166666666666667 Te
   0.7500000000000000    0.7500000000000000    0.7500000000000000 Te
