20.0% N(Distort)=1 ~[0.5,0.5,0.5]       
   1.00000000000000     
    12.5998379999999983    0.0000000000000004    0.0000000000000004
     0.0000000000000004   12.5998379999999983   -0.0000000000000004
    -0.0000000000000004   -0.0000000000000004   12.5998379999999983
   Mg   O 
   109   107
Direct
  0.6674931922479180 -0.0001066732847162  0.0000857672586138
  0.8339443739390853  0.1661357695423618 -0.0000322428288063
  0.8339008808014317 -0.0004084117225657  0.1663617097379004
  0.3330372989209049 -0.0000894939589809  0.0000702253638867
  0.5004007247770017  0.1657215210001818  0.0003242001268649
  0.6676192811907291  0.3322953980854108  0.0012392961819890
  0.8350124232777323  0.4999347002134126  0.0015274673978304
  0.5002500775637655 -0.0015992048015784  0.1652822298846144
  0.6677833106973231  0.1654509771564004  0.1658567597729375
  0.8343987691481320  0.3324510614389974  0.1658854680798315
  0.6676985658325278 -0.0019768608672894  0.3325907375161165
  0.8344396857247333  0.1654654223083421  0.3324745164030393
  0.8350405694521842  0.9984085704135534  0.5000388579962294
  0.0002158097972014 -0.0000892821755351  0.0000621152407242
  0.1666090283935013  0.1663023971327783  0.0000300253358129
  0.3331775410866176  0.3328570629664039  0.0011754458605236
  0.5004566068172593  0.5001180713070319  0.0046471192804028
  0.6676902496239985  0.6673694010284659  0.0018998902110147
  0.8338900255816378  0.8335974171526435  0.0003618803779433
  0.1664597922255844 -0.0000203328980943  0.1663459070750005
  0.3328362971827974  0.1660271565158183  0.1658743798629012
  0.5005350391587102  0.3313503337961213  0.1649380139128401
  0.6683413532394428  0.4999452836048005  0.1659304105748716
  0.8335473762889106  0.6670943479622551  0.1667139673076582
  0.3326414736566664 -0.0012580264475382  0.3326667346803693
  0.5000141043624700  0.1578260040613618  0.3267797816009370
  0.6707275368891120  0.3326715984941870  0.3295968862184234
  0.8343675705448211  0.4999603791259070  0.3319355268869711
  0.5004653849683417 -0.0047225124815638  0.4998612016854052
  0.6736452806802476  0.1577408899682251  0.5002906512029890
  0.8354188486992291  0.3313339713663266  0.4997816665297956
  0.6676289480491885 -0.0012978964408890  0.6676877463325386
  0.8344505877347522  0.1659982884419602  0.6674798526694714
  0.8339382985751175 -0.0000077817124283  0.8338465501354976
  0.0002394335791445  0.3327416500399707  0.0000595845287830
  0.1660469705068194  0.5001094621834804  0.0003188454653847
  0.3326334590942150  0.6672914296858684  0.0012196013877855
  0.5002399056759457  0.8346758659057512  0.0015490291409514
  0.0003036304944531  0.1661342311533251  0.1663107799339114
  0.1663513657686375  0.3325234204771295  0.1658784972771727
  0.3317066864976355  0.5001864729430898  0.1649273357018848
  0.5002802625925579  0.6679913670235219  0.1659448070810573
  0.6674308800760896  0.8332101578001401  0.1667265096792314
  0.0002098399023300 -0.0001203953759477  0.3327484702389097
  0.1665742594459641  0.1662729255812590  0.3327387133061694
  0.3332851062602789  0.3329501334464333  0.3314196940050481
  0.5007679315544651  0.5004516885789592  0.3227608653357656
  0.6671580137914612  0.6668172445059068  0.3331493211267920
  0.8335591462957064  0.8332403184244965  0.3328713156773962
  0.1660490495370744  0.9996730646899992  0.4998505153789710
  0.3323732994004631  0.1614087950219080  0.4995695497557097
  0.5180833946359661  0.2975295996871622  0.4825455271057158
  0.6775733419058990  0.5004159782540974  0.4995439104402693
  0.8343504536565794  0.6680306776127857  0.5000122867032593
  0.3331580040279633 -0.0011939690418786  0.6671363262744263
  0.5006961962376747  0.1612927100347924  0.6679039397487629
  0.6689732954730070  0.3329226643914336  0.6670265620214777
  0.8353778862684839  0.5001945234430133  0.6686199941222275
  0.5004035643310054 -0.0003637346785503  0.8342720042034314
  0.6675043759183151  0.1662555047228976  0.8337049463588484
  0.8344404743074461  0.3325085806693621  0.8339594864700929
  0.0002018151801737  0.6672089514655872  0.0000758566055973
  0.1664506382128078  0.8336287476064255 -0.0000182769197688
  0.9987516346492450  0.4999349100844649  0.1652642074795755
  0.1658112876463250  0.6674475879942011  0.1658828363154827
  0.3327779023352638  0.8340503451737907  0.1659054771896275
  0.9990662236259719  0.3323089812620798  0.3326592788459947
  0.1581421046154226  0.4996723845287264  0.3267558484939148
  0.3330051705184885  0.6703929655128045  0.3295959619900176
  0.5002946423193709  0.8340094948834452  0.3319698497297679
 -0.0000156137897705  0.1657039462136969  0.4998548335812968
  0.1617152539426236  0.3320521491376122  0.4995858586945722
  0.2978022776838464  0.5177088213903915  0.4824704144555757
  0.5007578884375276  0.6772037430672851  0.4995525633983527
  0.6683522909520689  0.8340085573547772  0.5000273135486025
  0.0002315339035213 -0.0000876090157430  0.6672536618575481
  0.1654309904504389  0.1651182342490198  0.6669953174727525
  0.3270891103495549  0.3267831282096436  0.6731389007089559
  0.5178739818910996  0.5174081279790268  0.7022297729913302
  0.6706820969820250  0.6703498604847139  0.6673076803784587
  0.8343836711588106  0.8340716371281504  0.6675145205531700
  0.1666085065157455 -0.0000366977340530  0.8336831592246025
  0.3332931841543860  0.1651246612287614  0.8348571971010196
  0.5006939606158816  0.3320572552405406  0.8386310609286061
  0.6735495872035678  0.4996740816750775  0.8421177620423820
  0.8344188696322825  0.6674828683227080  0.8344930541414119
 -0.0000764846307532  0.8335807122080329  0.1663814082703683
  0.9983621732725200  0.6673895259533633  0.3325870451253848
  0.1658096614938349  0.8340994086386587  0.3325243063940393
 -0.0043983474312246  0.5001258546677184  0.4998534927358207
  0.1581082833754568  0.6732832807849036  0.5003084186768114
  0.3316840035604830  0.8350750773011294  0.4997864004409183
 -0.0008764358677572  0.3328266838907712  0.6671438899684198
  0.1616398139430135  0.5003743149788570  0.6679149129471107
  0.3332724277905967  0.6686165602301914  0.6670204498173533
  0.5005216196175806  0.8350255015855936  0.6686292088762829
  0.0002885948928976  0.1662800900662982  0.8337035708657577
  0.1654409635942608  0.3329842900188647  0.8348523406125878
  0.3323594161788987  0.5003979350136672  0.8385793097049824
  0.5000012522313261  0.6731587867574625  0.8421025222076118
  0.6677626238117357  0.8341048442438247  0.8345089962319080
 -0.0012648690950992  0.8347258203113320  0.5000413207390029
 -0.0009503243796600  0.6673164263407780  0.6676552646914903
  0.1663380261045945  0.8341270129354175  0.6674533902828609
 -0.0000375239120508  0.5001114722849398  0.8342634819161490
  0.1665615465594807  0.6672231857059407  0.8336969933137752
  0.3328319899221616  0.8340974204076200  0.8339480508167285
  0.0003050894861616  0.8336549341582684  0.8338314900286287
  0.4426934865898604  0.4424677115920289  0.5572134945751932
  0.8333697658445685  0.1665268801513226  0.1668833118921301
  0.0004666394834339  0.3332538059242188  0.1667765502195619
  0.0006092518305096  0.1667452210607673  0.3335623199033811
  0.5002034227264126  0.1658042742252549  0.1662053191051674
  0.6667795219113937  0.3330461223508572  0.1669937766204480
  0.8329587986608871  0.4996083723913515  0.1673226054329831
 -0.0000199570343902  0.6664079371383150  0.1668695713113908
  0.6655246273155886  0.1663716899006430  0.3347811311370842
  0.8333387952567146  0.3330658179716848  0.3334729578342747
  0.9977522116451674  0.4997409207681050  0.3323902251402799
  0.8341705309008931  0.1657747678188113  0.5001096413088157
 -0.0010123953981633  0.3325210754286298  0.5000796597838220
  0.0005683433600571  0.1669946420006181  0.6664999458386981
  0.1673738039839360  0.1670560407447816  0.1670656528823290
  0.3339760601359049  0.3336055279653949  0.1676394865968193
  0.4998633530334776  0.4995161832809557  0.1660004904107531
  0.6662501560374771  0.6658795337783885  0.1679737588902759
  0.8333042756626688  0.8329769853347003  0.1669743716125066
  0.0003002437897129 -0.0000066535592814  0.1667128124837329
  0.3349598177750885  0.1674751550021223  0.3348558555181011
  0.5013128572115534  0.3336986830949327  0.3333817856404659
  0.6641128623370667  0.4991358953333055  0.3362098031975602
  0.8323461810845366  0.6659197133345081  0.3340481057799712
 -0.0000168709180025  0.8331136633454033  0.3335500639514131
  0.5005894455426541  0.1538465460635666  0.4997616094972292
  0.6672090137378924  0.3336124472437043  0.4990237602118836
  0.8343380749849877  0.4995387717270542  0.5004166454923412
 -0.0022521269523315  0.6675901347528235  0.5002259293372461
  0.6654104078025311  0.1674632533667945  0.6653367337266307
  0.8327373524948249  0.3335774047931132  0.6663815491387964
 -0.0010354970482639  0.4998879632074962  0.6674428984718861
  0.8332353380560394  0.1670251415620942  0.8329466368055682
  0.0005818978365725  0.3334988454084384  0.8329693959064665
  0.0004752650156943  0.1667633831209039 -0.0001708284279885
  0.1661876318756036  0.4998651795482323  0.1662138099410643
  0.3333795707272853  0.6664611146565601  0.1669832167919727
  0.4999677508466172  0.8325935068519272  0.1673625480379066
  0.6667189693437894 -0.0003683244580768  0.1668703133033088
  0.1678076809805521  0.3346259825541886  0.3348449444917050
  0.3340432608460335  0.5009652001394402  0.3333464275781097
  0.4994517104516690  0.6637523067693394  0.3362202797066908
  0.6662678792556236  0.8319723070899568  0.3340752715786229
  0.8334165650546326 -0.0003426322624751  0.3335514760982924
  0.1687361162315464  0.1684344175667418  0.5001891120905126
  0.3425832577897919  0.3423073966986330  0.4996261328022700
  0.6640923604736809  0.6637458973440915  0.5008219297123073
  0.8329645339179675  0.8326458131186939  0.5003509543853663
  0.0005397277674789  0.0001989978571858  0.5001251285840324
  0.3350477121080113  0.1673428480339562  0.6652521317068266
  0.5006918168229921  0.3425030127676506  0.6573597687001459
  0.6670980100019195  0.5009365830423435  0.6662991523604294
  0.8333158012245006  0.6664926193331682  0.6668943421963205
  0.0004561005222868  0.8331987256514251  0.6667157294690648
  0.5000579376223933  0.1684594251372137  0.8315019124172092
  0.6653924176320177  0.3346149661937939  0.8324379512503395
  0.8341167632352836  0.4998651242706308  0.8341717929633730
  0.0006027366406682  0.6663892202767455  0.8332158597815020
  0.6666710204374942  0.1667473330406763 -0.0003291102410400
  0.8334858709875801  0.3332474262683733 -0.0001632557727001
  0.0005351666926204  0.4998328762895377 -0.0002152869872540
  0.1668371450882790  0.8330470430459558  0.1669192112039120
  0.3335573227299404  0.0001140233109883  0.1667918207617698
  0.1667084242506028  0.6651957217192247  0.3347973963870371
  0.3333865664630909  0.8330058473038988  0.3335031526221634
  0.5000834940330651 -0.0025934547674214  0.3324251656504936
  0.1541495093933608  0.5002339446582659  0.4997459558035749
  0.3339829186115397  0.6667955292819316  0.4990169204292840
  0.4998681787629646  0.8339727318305119  0.5004340394909378
  0.6679095142490932 -0.0026089807941674  0.5002402098231379
  0.1676543554731800  0.3347113625215690  0.6652658857295469
  0.3427091417505857  0.5003381017624312  0.6574193691965791
  0.5012703085551353  0.6666474013102783  0.6662717175121770
  0.6667742085132077  0.8329737145643621  0.6669079933476073
  0.8334875166258962  0.0001223727377299  0.6667268430784714
  0.1678086210261744  0.1674717096890777  0.8325064818075875
  0.3350568972726118  0.3347344202256162  0.8325814697801228
  0.5005698113425818  0.5002042084613364  0.8460080228456629
  0.6655221029774094  0.6651927247924223  0.8335852065104205
  0.8333677225503326  0.8330871981792208  0.8334336858042647
  0.0004756800965631  0.0001511053142014  0.8332259287047079
  0.3338190980818771  0.1670261298615022 -0.0002591187831445
  0.5002017007689111  0.3325364242234264  0.0013116014681173
  0.6678917983036673  0.4997122807131094  0.0025304687812004
  0.8334034863794220  0.6664146362096827  0.0003024844434806
  0.0002873566779001  0.8332511950591801 -0.0000270242249317
  0.1670855333091870  0.0003022124256695  0.3335844228958718
  0.1661496566813999  0.8338174149830224  0.5001100541030559
  0.3328863883633158 -0.0013246393774493  0.5000855620260488
  0.1678013513906591  0.6651090639821802  0.6653338705769424
  0.3339398221001053  0.8323675533303527  0.6663766474383537
  0.5002056594323259 -0.0013658048887724  0.6674467018418710
  0.1687533902362764  0.4997730586924381  0.8315191283630006
  0.3349292630919991  0.6650814273756377  0.8324664824341369
  0.5001771686250950  0.8337483728811813  0.8341639726737234
  0.6666751564592430  0.0002815727230160  0.8332339253584417
  0.1673710624289405  0.3335156602415271 -0.0002660256715914
  0.3328830693691878  0.4998865775771951  0.0012918255646070
  0.5000573317000268  0.6675429056539487  0.0025380501871868
  0.6667057083851712  0.8331015832605739  0.0003120639953786
  0.8335399662703027  0.0000037170729762 -0.0000298728807893
  0.1673405080144985  0.0002644907375458  0.6664689892600802
  0.1673683957878517  0.8329183812669080  0.8329115487349782
  0.3338063100644470  0.0002371884723201  0.8329649711694405
  0.1670793402951440  0.6663742006072192 -0.0003267192391690
  0.3335549846917283  0.8331789970477856 -0.0001468301120360
  0.5001240752724462  0.0001919508052707 -0.0002084861610251
  0.1670785926357916  0.0001476759856566 -0.0001636672648224
 
  0.00000000E+00  0.00000000E+00  0.00000000E+00
  0.00000000E+00  0.00000000E+00  0.00000000E+00
  0.00000000E+00  0.00000000E+00  0.00000000E+00
  0.00000000E+00  0.00000000E+00  0.00000000E+00
  0.00000000E+00  0.00000000E+00  0.00000000E+00
  0.00000000E+00  0.00000000E+00  0.00000000E+00
  0.00000000E+00  0.00000000E+00  0.00000000E+00
  0.00000000E+00  0.00000000E+00  0.00000000E+00
  0.00000000E+00  0.00000000E+00  0.00000000E+00
  0.00000000E+00  0.00000000E+00  0.00000000E+00
  0.00000000E+00  0.00000000E+00  0.00000000E+00
  0.00000000E+00  0.00000000E+00  0.00000000E+00
  0.00000000E+00  0.00000000E+00  0.00000000E+00
  0.00000000E+00  0.00000000E+00  0.00000000E+00
  0.00000000E+00  0.00000000E+00  0.00000000E+00
  0.00000000E+00  0.00000000E+00  0.00000000E+00
  0.00000000E+00  0.00000000E+00  0.00000000E+00
  0.00000000E+00  0.00000000E+00  0.00000000E+00
  0.00000000E+00  0.00000000E+00  0.00000000E+00
  0.00000000E+00  0.00000000E+00  0.00000000E+00
  0.00000000E+00  0.00000000E+00  0.00000000E+00
  0.00000000E+00  0.00000000E+00  0.00000000E+00
  0.00000000E+00  0.00000000E+00  0.00000000E+00
  0.00000000E+00  0.00000000E+00  0.00000000E+00
  0.00000000E+00  0.00000000E+00  0.00000000E+00
  0.00000000E+00  0.00000000E+00  0.00000000E+00
  0.00000000E+00  0.00000000E+00  0.00000000E+00
  0.00000000E+00  0.00000000E+00  0.00000000E+00
  0.00000000E+00  0.00000000E+00  0.00000000E+00
  0.00000000E+00  0.00000000E+00  0.00000000E+00
  0.00000000E+00  0.00000000E+00  0.00000000E+00
  0.00000000E+00  0.00000000E+00  0.00000000E+00
  0.00000000E+00  0.00000000E+00  0.00000000E+00
  0.00000000E+00  0.00000000E+00  0.00000000E+00
  0.00000000E+00  0.00000000E+00  0.00000000E+00
  0.00000000E+00  0.00000000E+00  0.00000000E+00
  0.00000000E+00  0.00000000E+00  0.00000000E+00
  0.00000000E+00  0.00000000E+00  0.00000000E+00
  0.00000000E+00  0.00000000E+00  0.00000000E+00
  0.00000000E+00  0.00000000E+00  0.00000000E+00
  0.00000000E+00  0.00000000E+00  0.00000000E+00
  0.00000000E+00  0.00000000E+00  0.00000000E+00
  0.00000000E+00  0.00000000E+00  0.00000000E+00
  0.00000000E+00  0.00000000E+00  0.00000000E+00
  0.00000000E+00  0.00000000E+00  0.00000000E+00
  0.00000000E+00  0.00000000E+00  0.00000000E+00
  0.00000000E+00  0.00000000E+00  0.00000000E+00
  0.00000000E+00  0.00000000E+00  0.00000000E+00
  0.00000000E+00  0.00000000E+00  0.00000000E+00
  0.00000000E+00  0.00000000E+00  0.00000000E+00
  0.00000000E+00  0.00000000E+00  0.00000000E+00
  0.00000000E+00  0.00000000E+00  0.00000000E+00
  0.00000000E+00  0.00000000E+00  0.00000000E+00
  0.00000000E+00  0.00000000E+00  0.00000000E+00
  0.00000000E+00  0.00000000E+00  0.00000000E+00
  0.00000000E+00  0.00000000E+00  0.00000000E+00
  0.00000000E+00  0.00000000E+00  0.00000000E+00
  0.00000000E+00  0.00000000E+00  0.00000000E+00
  0.00000000E+00  0.00000000E+00  0.00000000E+00
  0.00000000E+00  0.00000000E+00  0.00000000E+00
  0.00000000E+00  0.00000000E+00  0.00000000E+00
  0.00000000E+00  0.00000000E+00  0.00000000E+00
  0.00000000E+00  0.00000000E+00  0.00000000E+00
  0.00000000E+00  0.00000000E+00  0.00000000E+00
  0.00000000E+00  0.00000000E+00  0.00000000E+00
  0.00000000E+00  0.00000000E+00  0.00000000E+00
  0.00000000E+00  0.00000000E+00  0.00000000E+00
  0.00000000E+00  0.00000000E+00  0.00000000E+00
  0.00000000E+00  0.00000000E+00  0.00000000E+00
  0.00000000E+00  0.00000000E+00  0.00000000E+00
  0.00000000E+00  0.00000000E+00  0.00000000E+00
  0.00000000E+00  0.00000000E+00  0.00000000E+00
  0.00000000E+00  0.00000000E+00  0.00000000E+00
  0.00000000E+00  0.00000000E+00  0.00000000E+00
  0.00000000E+00  0.00000000E+00  0.00000000E+00
  0.00000000E+00  0.00000000E+00  0.00000000E+00
  0.00000000E+00  0.00000000E+00  0.00000000E+00
  0.00000000E+00  0.00000000E+00  0.00000000E+00
  0.00000000E+00  0.00000000E+00  0.00000000E+00
  0.00000000E+00  0.00000000E+00  0.00000000E+00
  0.00000000E+00  0.00000000E+00  0.00000000E+00
  0.00000000E+00  0.00000000E+00  0.00000000E+00
  0.00000000E+00  0.00000000E+00  0.00000000E+00
  0.00000000E+00  0.00000000E+00  0.00000000E+00
  0.00000000E+00  0.00000000E+00  0.00000000E+00
  0.00000000E+00  0.00000000E+00  0.00000000E+00
  0.00000000E+00  0.00000000E+00  0.00000000E+00
  0.00000000E+00  0.00000000E+00  0.00000000E+00
  0.00000000E+00  0.00000000E+00  0.00000000E+00
  0.00000000E+00  0.00000000E+00  0.00000000E+00
  0.00000000E+00  0.00000000E+00  0.00000000E+00
  0.00000000E+00  0.00000000E+00  0.00000000E+00
  0.00000000E+00  0.00000000E+00  0.00000000E+00
  0.00000000E+00  0.00000000E+00  0.00000000E+00
  0.00000000E+00  0.00000000E+00  0.00000000E+00
  0.00000000E+00  0.00000000E+00  0.00000000E+00
  0.00000000E+00  0.00000000E+00  0.00000000E+00
  0.00000000E+00  0.00000000E+00  0.00000000E+00
  0.00000000E+00  0.00000000E+00  0.00000000E+00
  0.00000000E+00  0.00000000E+00  0.00000000E+00
  0.00000000E+00  0.00000000E+00  0.00000000E+00
  0.00000000E+00  0.00000000E+00  0.00000000E+00
  0.00000000E+00  0.00000000E+00  0.00000000E+00
  0.00000000E+00  0.00000000E+00  0.00000000E+00
  0.00000000E+00  0.00000000E+00  0.00000000E+00
  0.00000000E+00  0.00000000E+00  0.00000000E+00
  0.00000000E+00  0.00000000E+00  0.00000000E+00
  0.00000000E+00  0.00000000E+00  0.00000000E+00
  0.00000000E+00  0.00000000E+00  0.00000000E+00
  0.00000000E+00  0.00000000E+00  0.00000000E+00
  0.00000000E+00  0.00000000E+00  0.00000000E+00
  0.00000000E+00  0.00000000E+00  0.00000000E+00
  0.00000000E+00  0.00000000E+00  0.00000000E+00
  0.00000000E+00  0.00000000E+00  0.00000000E+00
  0.00000000E+00  0.00000000E+00  0.00000000E+00
  0.00000000E+00  0.00000000E+00  0.00000000E+00
  0.00000000E+00  0.00000000E+00  0.00000000E+00
  0.00000000E+00  0.00000000E+00  0.00000000E+00
  0.00000000E+00  0.00000000E+00  0.00000000E+00
  0.00000000E+00  0.00000000E+00  0.00000000E+00
  0.00000000E+00  0.00000000E+00  0.00000000E+00
  0.00000000E+00  0.00000000E+00  0.00000000E+00
  0.00000000E+00  0.00000000E+00  0.00000000E+00
  0.00000000E+00  0.00000000E+00  0.00000000E+00
  0.00000000E+00  0.00000000E+00  0.00000000E+00
  0.00000000E+00  0.00000000E+00  0.00000000E+00
  0.00000000E+00  0.00000000E+00  0.00000000E+00
  0.00000000E+00  0.00000000E+00  0.00000000E+00
  0.00000000E+00  0.00000000E+00  0.00000000E+00
  0.00000000E+00  0.00000000E+00  0.00000000E+00
  0.00000000E+00  0.00000000E+00  0.00000000E+00
  0.00000000E+00  0.00000000E+00  0.00000000E+00
  0.00000000E+00  0.00000000E+00  0.00000000E+00
  0.00000000E+00  0.00000000E+00  0.00000000E+00
  0.00000000E+00  0.00000000E+00  0.00000000E+00
  0.00000000E+00  0.00000000E+00  0.00000000E+00
  0.00000000E+00  0.00000000E+00  0.00000000E+00
  0.00000000E+00  0.00000000E+00  0.00000000E+00
  0.00000000E+00  0.00000000E+00  0.00000000E+00
  0.00000000E+00  0.00000000E+00  0.00000000E+00
  0.00000000E+00  0.00000000E+00  0.00000000E+00
  0.00000000E+00  0.00000000E+00  0.00000000E+00
  0.00000000E+00  0.00000000E+00  0.00000000E+00
  0.00000000E+00  0.00000000E+00  0.00000000E+00
  0.00000000E+00  0.00000000E+00  0.00000000E+00
  0.00000000E+00  0.00000000E+00  0.00000000E+00
  0.00000000E+00  0.00000000E+00  0.00000000E+00
  0.00000000E+00  0.00000000E+00  0.00000000E+00
  0.00000000E+00  0.00000000E+00  0.00000000E+00
  0.00000000E+00  0.00000000E+00  0.00000000E+00
  0.00000000E+00  0.00000000E+00  0.00000000E+00
  0.00000000E+00  0.00000000E+00  0.00000000E+00
  0.00000000E+00  0.00000000E+00  0.00000000E+00
  0.00000000E+00  0.00000000E+00  0.00000000E+00
  0.00000000E+00  0.00000000E+00  0.00000000E+00
  0.00000000E+00  0.00000000E+00  0.00000000E+00
  0.00000000E+00  0.00000000E+00  0.00000000E+00
  0.00000000E+00  0.00000000E+00  0.00000000E+00
  0.00000000E+00  0.00000000E+00  0.00000000E+00
  0.00000000E+00  0.00000000E+00  0.00000000E+00
  0.00000000E+00  0.00000000E+00  0.00000000E+00
  0.00000000E+00  0.00000000E+00  0.00000000E+00
  0.00000000E+00  0.00000000E+00  0.00000000E+00
  0.00000000E+00  0.00000000E+00  0.00000000E+00
  0.00000000E+00  0.00000000E+00  0.00000000E+00
  0.00000000E+00  0.00000000E+00  0.00000000E+00
  0.00000000E+00  0.00000000E+00  0.00000000E+00
  0.00000000E+00  0.00000000E+00  0.00000000E+00
  0.00000000E+00  0.00000000E+00  0.00000000E+00
  0.00000000E+00  0.00000000E+00  0.00000000E+00
  0.00000000E+00  0.00000000E+00  0.00000000E+00
  0.00000000E+00  0.00000000E+00  0.00000000E+00
  0.00000000E+00  0.00000000E+00  0.00000000E+00
  0.00000000E+00  0.00000000E+00  0.00000000E+00
  0.00000000E+00  0.00000000E+00  0.00000000E+00
  0.00000000E+00  0.00000000E+00  0.00000000E+00
  0.00000000E+00  0.00000000E+00  0.00000000E+00
  0.00000000E+00  0.00000000E+00  0.00000000E+00
  0.00000000E+00  0.00000000E+00  0.00000000E+00
  0.00000000E+00  0.00000000E+00  0.00000000E+00
  0.00000000E+00  0.00000000E+00  0.00000000E+00
  0.00000000E+00  0.00000000E+00  0.00000000E+00
  0.00000000E+00  0.00000000E+00  0.00000000E+00
  0.00000000E+00  0.00000000E+00  0.00000000E+00
  0.00000000E+00  0.00000000E+00  0.00000000E+00
  0.00000000E+00  0.00000000E+00  0.00000000E+00
  0.00000000E+00  0.00000000E+00  0.00000000E+00
  0.00000000E+00  0.00000000E+00  0.00000000E+00
  0.00000000E+00  0.00000000E+00  0.00000000E+00
  0.00000000E+00  0.00000000E+00  0.00000000E+00
  0.00000000E+00  0.00000000E+00  0.00000000E+00
  0.00000000E+00  0.00000000E+00  0.00000000E+00
  0.00000000E+00  0.00000000E+00  0.00000000E+00
  0.00000000E+00  0.00000000E+00  0.00000000E+00
  0.00000000E+00  0.00000000E+00  0.00000000E+00
  0.00000000E+00  0.00000000E+00  0.00000000E+00
  0.00000000E+00  0.00000000E+00  0.00000000E+00
  0.00000000E+00  0.00000000E+00  0.00000000E+00
  0.00000000E+00  0.00000000E+00  0.00000000E+00
  0.00000000E+00  0.00000000E+00  0.00000000E+00
  0.00000000E+00  0.00000000E+00  0.00000000E+00
  0.00000000E+00  0.00000000E+00  0.00000000E+00
  0.00000000E+00  0.00000000E+00  0.00000000E+00
  0.00000000E+00  0.00000000E+00  0.00000000E+00
  0.00000000E+00  0.00000000E+00  0.00000000E+00
  0.00000000E+00  0.00000000E+00  0.00000000E+00
  0.00000000E+00  0.00000000E+00  0.00000000E+00
  0.00000000E+00  0.00000000E+00  0.00000000E+00
  0.00000000E+00  0.00000000E+00  0.00000000E+00
  0.00000000E+00  0.00000000E+00  0.00000000E+00
  0.00000000E+00  0.00000000E+00  0.00000000E+00
  0.00000000E+00  0.00000000E+00  0.00000000E+00
  0.00000000E+00  0.00000000E+00  0.00000000E+00
  0.00000000E+00  0.00000000E+00  0.00000000E+00
  0.00000000E+00  0.00000000E+00  0.00000000E+00
  0.00000000E+00  0.00000000E+00  0.00000000E+00
