20.0% N(Distort)=1 ~[0.5,0.5,0.5]
1.0
  12.5998379999999983    0.0000000000000004    0.0000000000000004
   0.0000000000000004   12.5998379999999983   -0.0000000000000004
  -0.0000000000000004   -0.0000000000000004   12.5998379999999983
Mg O
109 107
direct
   0.6719359826099596    0.0164400566803896   -0.0025562813959436 Mg
   0.8333333333333333    0.1666666666666667    1.0000000000000000 Mg
   0.8356993213461827    1.0223522002184962    0.1641323011046227 Mg
   0.3224763702131981    0.0044599364366762   -0.0124259056236310 Mg
   0.5248438668437096    0.1340167727506748    0.0208845527956899 Mg
   0.6714935292382217    0.3457211772833228   -0.0209526067947342 Mg
   0.8290737230186719    0.5128489518682409    0.9753351773185092 Mg
   0.4916111432182905   -0.0188535355206976    0.1598155402881129 Mg
   0.6678441349996687    0.1610208860998654    0.1570750534364992 Mg
   0.8398290960954995    0.3139069218633367    0.1559451496808327 Mg
   0.6529922647312478   -0.0208375328663862    0.3414634871060681 Mg
   0.8272948733419782    0.1623771361292621    0.3409283729394916 Mg
   0.8546718546691711    0.9895610099407481    0.4840357737385074 Mg
   0.0071664193739197   -0.0062217652039983    0.0222514026378674 Mg
   0.1778419933210541    0.1731984125676223   -0.0018258863128983 Mg
   0.3509020234804865    0.3164886540857361   -0.0051952251219566 Mg
   0.4851367154230440    0.5060807663205097    0.0227075764064646 Mg
   0.6388666746502948    0.6688133188066776   -0.0235047665460147 Mg
   0.8493054184143907    0.8404198254721323    0.0156185315519550 Mg
   0.1550622663609379    0.0070621578576809    0.1755893241350447 Mg
   0.3229070799387105    0.1602697860082556    0.1469752626387115 Mg
   0.5225367342199747    0.3289489778683289    0.1443390316083256 Mg
   0.6928865113157349    0.5170532082026663    0.1526261531455414 Mg
   0.8301874750611035    0.6951513227379724    0.1764429135622143 Mg
   0.3364767959771385    0.0093144088968675    0.3294769297912727 Mg
   0.4982640672124659    0.1773792761319273    0.3536609140464707 Mg
   0.6650502985036897    0.3288541343019153    0.3359702075269573 Mg
   0.8403584470131449    0.4970331796182972    0.3486701612025650 Mg
   0.4947910800683926    0.0202519946282909    0.5286613036804330 Mg
   0.6350549474016074    0.1945445291202825    0.4694840588432075 Mg
   0.8039052536122827    0.3409312265230112    0.5060087239430703 Mg
   0.6495954989755989    0.0313671915667326    0.6627357747048523 Mg
   0.8347637125984989    0.1657521328434063    0.6714409922644629 Mg
   0.8433038973606903   -0.0128234283711014    0.8424678589007412 Mg
   0.0079331708069961    0.3342327827832923    1.0013150262474144 Mg
   0.1889892717057903    0.4843523068634901    0.0270757039734539 Mg
   0.3363271997956430    0.6717192685024004    1.0092066456856925 Mg
   0.4865082087766613    0.8520391996691922    0.0013777530894424 Mg
  -0.0028757290064278    0.1690903824589512    0.1606992501503866 Mg
   0.1649217709173287    0.3637451307505881    0.1709967120607666 Mg
   0.3455826411820249    0.4813032135543706    0.1482212640325313 Mg
   0.4786796274561124    0.6762120428465725    0.1674486229667467 Mg
   0.6688712238847692    0.8469694847030087    0.1822473221692382 Mg
   1.0084863530658970    0.9867940795444217    0.3471892713259130 Mg
   0.1444368749295563    0.1589665732732378    0.3240781706289484 Mg
   0.3185929257079859    0.3191969019623337    0.3031321841618090 Mg
   0.4890976011935320    0.5259566718734133    0.3512106699779224 Mg
   0.6632667474110459    0.6769740329011735    0.3513220827067979 Mg
   0.8407044061245880    0.8482225818431882    0.3027538845922461 Mg
   0.1640517802269218   -0.0115625529507124    0.5095853880571897 Mg
   0.3275196442052966    0.1450320053467432    0.4778781216213971 Mg
   0.5206384573857551    0.3125420358346444    0.5138870848698449 Mg
   0.6521136944737557    0.5010348601142808    0.5105672460270253 Mg
   0.8249174848489655    0.6757047246777489    0.5131580216688417 Mg
   0.3471634979404780    0.9911387728849989    0.6657321062330617 Mg
   0.5158625973101857    0.1779586548631956    0.6809951529674279 Mg
   0.6892244818071194    0.3262945376250271    0.6662025174469475 Mg
   0.8277133543449273    0.4729776623495673    0.6910929210956502 Mg
   0.5211865006227416    0.0101238791532132    0.8335794601628709 Mg
   0.6748796154897890    0.1590773675941084    0.8537818389069638 Mg
   0.8476232886434595    0.3407769689093568    0.8218805545252473 Mg
   0.0169072003487976    0.6761676375825921    0.9990964858785079 Mg
   0.1544517758363096    0.8294420106629770   -0.0022753215016017 Mg
  -0.0190910049911650    0.5020498461768681    0.1633399922850681 Mg
   0.1879167979952185    0.6655669357837626    0.1846353764439277 Mg
   0.3370586428642117    0.8461775801420204    0.1534976358573737 Mg
  -0.0253245284507995    0.3400617378780215    0.3138156584106290 Mg
   0.1794801068323797    0.4873545134540450    0.3400936941186301 Mg
   0.3504893325653077    0.6851237928508089    0.3127959427266799 Mg
   0.4933134269693640    0.8540227641115834    0.3122977811497111 Mg
   0.0048203067302128    0.1926962812556618    0.4760683256863580 Mg
   0.1587256348653049    0.3107915547718176    0.5165814674482794 Mg
   0.3271074554544768    0.4825024125046912    0.4659151865878115 Mg
   0.4930434826879945    0.6677375903707000    0.5035130336876458 Mg
   0.6544340491069817    0.8279292168893614    0.4820308894907762 Mg
   0.9847622882135797    1.0169632782195122    0.6498733451687424 Mg
   0.1498030150258967    0.1510024336874932    0.6362347415288981 Mg
   0.3477823214116310    0.3242882199715769    0.6656861552594113 Mg
   0.5059614309306455    0.5180352786195540    0.6563937201689349 Mg
   0.6509184752383178    0.6451596174638820    0.6716464185713567 Mg
   0.8281168919616013    0.8396858377336476    0.6875864245118659 Mg
   0.1756820826393473    0.0143482191269046    0.8211335351320211 Mg
   0.3333294359259653    0.1911354758642340    0.8323627128391338 Mg
   0.4869747197711125    0.3278486839008868    0.8116160314000408 Mg
   0.6754039029995826    0.5072875063440169    0.8260276215946644 Mg
   0.8275868049908648    0.6497597404894344    0.8372221089337111 Mg
   0.9922887060789031    0.8476314362810525    0.1725067071389526 Mg
  -0.0173950879340776    0.6527473113422472    0.3133978881143419 Mg
   0.1494336718778797    0.8168964122617005    0.3290710266377364 Mg
   0.0209517241591519    0.5009654815844973    0.5059525709035718 Mg
   0.1789061883385334    0.6609756139447500    0.5232257011983452 Mg
   0.3306994806280938    0.8226967305306057    0.5038619019830359 Mg
   0.9832083130071574    0.3401514305371262    0.6560233857181823 Mg
   0.1852319164861217    0.4989923676571048    0.6890221362547264 Mg
   0.3415393003637475    0.6745033875262649    0.6748588050551041 Mg
   0.4931191332917166    0.8272520665424055    0.6730182044526144 Mg
  -0.0033488799778617    0.1690062288230212    0.8310951622073476 Mg
   0.1700281916701747    0.3715045863432947    0.8342572259859955 Mg
   0.3202290188729723    0.4927726694069688    0.8227247004442555 Mg
   0.4960284948971399    0.6668927003342209    0.8510413734256564 Mg
   0.6572966461102774    0.8351092446461542    0.8206181179184409 Mg
   1.0025945841084529    0.8238050354115773    0.4961183092435741 Mg
  -0.0132009757991988    0.6530805340298166    0.6880756697991532 Mg
   0.1621093123691065    0.8131868785357451    0.6676668736072503 Mg
  -0.0166142702709275    0.4867773001328616    0.8178132620244981 Mg
   0.1811670961590998    0.6652549634907984    0.8451435435300921 Mg
   0.3464190426731201    0.8451923789587764    0.8158144320146481 Mg
  -0.0048443082538422    0.8002824648186553    0.8249805595411733 Mg
   0.4887053127463402    0.5097072624937551    0.4931744930610812 Mg
   0.8333333333333333    0.1666666666666667    0.2000025714616331 O
  -0.0040277836802346    0.3302675571113403    0.1647362111845082 O
  -0.0109510861285656    0.1497928593106350    0.3414469823482665 O
   0.4958254678339605    0.1607819885291346    0.1855373923563756 O
   0.6782901098264928    0.3164634628023798    0.1616468041957882 O
   0.8259440496696214    0.4899371378433083    0.1658791736230838 O
  -0.0184825378831274    0.6426165529505699    0.1573657392758381 O
   0.6814539901273223    0.1556661429060623    0.3501447748838146 O
   0.8213430727759439    0.3488262797914305    0.3513919623173936 O
  -0.0109424344262956    0.4766108962273732    0.3353912129092642 O
   0.8213857600970544    0.1465108800869336    0.5080456142504960 O
   0.0027738491999697    0.3525426365222493    0.4933197095780569 O
  -0.0065363302961052    0.1481374719276897    0.6630421290128594 O
   0.1579194241045153    0.1765281295384186    0.1730780183696011 O
   0.3431335590403511    0.3254736235196687    0.1590213545373798 O
   0.5096881450620705    0.5052197185330710    0.1859386284724145 O
   0.6476046438425889    0.6584449805675102    0.1628023981199497 O
   0.8135474132223212    0.8374161355124677    0.1577809854888249 O
   0.0284587551814710   -0.0100806653446081    0.1815789333521706 O
   0.3453562247551298    0.1727656583561364    0.3195198667784309 O
   0.5176874556895424    0.3242335521574817    0.3593232304108614 O
   0.6759599914375670    0.5005188624202563    0.3418309225251361 O
   0.8476615459534745    0.6921047424537452    0.3209298552797641 O
  -0.0049456187542569    0.8338344757051889    0.3338595969680102 O
   0.5079870072260593    0.1617010567673397    0.4860554777388094 O
   0.6650609273233759    0.3278552015713166    0.4909638815931360 O
   0.8381996611390433    0.5198727519132581    0.5050527940145819 O
  -0.0381864026619175    0.6927379671058946    0.4817405994220960 O
   0.6604948118399909    0.1833250008870587    0.6570156067304206 O
   0.8499928886782567    0.2987391221292967    0.6785030057782545 O
   0.0003810961569495    0.5164113610971108    0.6426235280042770 O
   0.8329310605561271    0.1915780180499058    0.8085365908845826 O
  -0.0077793358730480    0.3198549142853928    0.8170999105311808 O
  -0.0227665573214402    0.1665839429823845   -0.0048946185510909 O
   0.1768054344621561    0.4943603985981279    0.1804126585365146 O
   0.3230068066070695    0.6766787174954807    0.1520847023818490 O
   0.5151979327001319    0.8346427113752850    0.1738447883198052 O
   0.6546223636194367   -0.0130396419378709    0.1838549064105460 O
   0.1710945606936191    0.3226201863249120    0.3363864428544771 O
   0.3441930207759835    0.4824727994839001    0.3324553143339878 O
   0.5267395452628612    0.6783502527480270    0.3227669305550483 O
   0.6765121065549203    0.8399829639050327    0.3305935106485893 O
   0.8205174913657062   -0.0082509531437156    0.3470080112782875 O
   0.1577367508348719    0.1414897855946994    0.4887902391944405 O
   0.3386004110966044    0.3432594822272175    0.4688833745796764 O
   0.6791905530617813    0.6583534295151420    0.5036849464343495 O
   0.8365651437146200    0.8455872100592327    0.5038777548008214 O
   0.0029645602151755    0.0085628074114871    0.5044069720316412 O
   0.3507253111032378    0.1889244572923743    0.6660799361064014 O
   0.5039030856929488    0.3429042352860110    0.6726974118641554 O
   0.6483325534337038    0.4949871713609721    0.6719630180827441 O
   0.8525773711373756    0.6690552306438471    0.6856931996206334 O
   0.0149302385867880    0.8110997556815520    0.6890241360700724 O
   0.4790869879502381    0.1674194148614151    0.8278569436740543 O
   0.6665948356065243    0.3307389954706280    0.8378689232232135 O
   0.8348490213139147    0.4877267983456992    0.8363547624045508 O
  -0.0052360128261877    0.6550198823413693    0.8664384019660393 O
   0.6839179393712632    0.1712199865004473    0.0082897187215409 O
   0.8522643961225730    0.3334522598137616    0.0070710914965678 O
  -0.0194894505337876    0.5065577598734908    0.0052440866973057 O
   0.1547726004040941    0.8366419945024816    0.1732669039846791 O
   0.3420509008071153    0.0036022138708196    0.1751031078757998 O
   0.1824756732776709    0.6746301591688892    0.3427049101448318 O
   0.3307306738106638    0.8376536170938209    0.3316775444119510 O
   0.4737433520646990   -0.0012037483451692    0.3472654011017045 O
   0.1654802046811331    0.4806739447781088    0.4973888255903089 O
   0.3248231564244365    0.6786921865340007    0.5030440202853086 O
   0.5112571327581897    0.8514938609740660    0.5131618310376237 O
   0.6730465471091867    0.0058602132247611    0.5079636060693683 O
   0.1665877662027234    0.3252211173333569    0.6526812807517366 O
   0.3460211629124211    0.5110085976268606    0.6804255667080974 O
   0.4954938256399418    0.6631413257144636    0.6726356001884036 O
   0.6678851252229996    0.7951607511971162    0.6654508197999575 O
   0.8331819575740939   -0.0273768590092407    0.6495969865155072 O
   0.1621511944906980    0.1684975909181972    0.8403041017555505 O
   0.3272842720797277    0.3523226147503058    0.8183833827512486 O
   0.4804953942736824    0.4865374346304736    0.8426940118948729 O
   0.6509283583001252    0.6714511141372075    0.8211882827848896 O
   0.8381793792001710    0.8412939386132978    0.8478926338073569 O
  -0.0065447804418273   -0.0176637066600474    0.8191588111287105 O
   0.3231688690537661    0.1712341570773366   -0.0035575181919879 O
   0.5017430986050920    0.3494705345722638    0.0117907363820598 O
   0.6441899462777750    0.4955923924230288   -0.0056981393807026 O
   0.8611143790231730    0.6556966592257724    0.0059921193849734 O
   0.0159184472384177    0.8279287486348486   -0.0237211511293902 O
   0.1627736378837214   -0.0064953288212569    0.3328100835025642 O
   0.1737326916733336    0.8239496316978603    0.4881360745173510 O
   0.3499388752060572   -0.0200593220961548    0.5061922759533769 O
   0.1883634576259292    0.6588319363313644    0.6733980960945295 O
   0.3114918939212576    0.8639090654512842    0.6647916733259096 O
   0.5021411693814758    0.0021289310046121    0.6865136343129981 O
   0.1669812621091933    0.5168168382640701    0.8406948718119147 O
   0.3384754840916006    0.6659547011822654    0.8372122691812957 O
   0.5060766435184578    0.8164224785058127    0.8400076119370394 O
   0.6692313719693397   -0.0113799624450867    0.8519751461387006 O
   0.1633614193141568    0.3109720154144174   -0.0087480598585975 O
   0.3256232631886213    0.5225596791037954   -0.0135711739289957 O
   0.5116171587792182    0.6559476042385287    0.0463082086378943 O
   0.6756854010054548    0.8484536740605028    0.0092054547290128 O
   0.8305370878939484   -0.0023682104945691    0.0159662326543710 O
   0.1516761188513557   -0.0085229314879608    0.6622392613768704 O
   0.1899791205474912    0.8334534413654866    0.8155211793347656 O
   0.3529154459991699   -0.0092668916831328    0.8409418174643420 O
   0.1559582758541213    0.7037715579086172   -0.0012837202936239 O
   0.3391509768828011    0.8111909637248261    0.0083657897811253 O
   0.4776744576681844   -0.0138316046461872   -0.0097960091518821 O
   0.1756488627947921   -0.0066921596605788   -0.0252346640438517 O
