pymatgen with grid density = 1930 / number of atoms
0
Gamma
9 9 9
