KPOINTS from doped, with reciprocal_density = 95/Å⁻³
0
Gamma
7 7 2
