AEXX = 0.0
ALGO = Normal # change to all if zhegv, fexcp/f or zbrent errors encountered
EDIFF = 1e-06
EDIFFG = -0.01
ENCUT = 350
GGA = Ps
HFSCREEN = 0.0
ISMEAR = -5
LASPH = True
LCHARG = False
LHFCALC = False
LWAVE = False
NCORE = 8
NSW = 0
PREC = Accurate
SIGMA = 0.2
