KPOINTS from doped, with reciprocal_density = 10/Å⁻³
0
Gamma
1 1 1
