40.0% N(Distort)=1 ~[0.5,0.5,0.5]
1.0
  12.5998379999999983    0.0000000000000004    0.0000000000000004
   0.0000000000000004   12.5998379999999983   -0.0000000000000004
  -0.0000000000000004   -0.0000000000000004   12.5998379999999983
Mg O
109 107
direct
   0.6719359826099596    0.0164400566803896   -0.0025562813959436 Mg
   0.8333333333333333    0.1666666666666667    1.0000000000000000 Mg
   0.8356993213461827    1.0223522002184962    0.1641323011046227 Mg
   0.3224763702131981    0.0044599364366762   -0.0124259056236310 Mg
   0.5248438668437096    0.1340167727506748    0.0208845527956899 Mg
   0.6714935292382217    0.3457211772833228   -0.0209526067947342 Mg
   0.8290737230186719    0.5128489518682409    0.9753351773185092 Mg
   0.4916111432182905   -0.0188535355206976    0.1598155402881129 Mg
   0.6678441349996687    0.1610208860998654    0.1570750534364992 Mg
   0.8398290960954995    0.3139069218633367    0.1559451496808327 Mg
   0.6529922647312478   -0.0208375328663862    0.3414634871060681 Mg
   0.8383686394545844    0.1813625688851739    0.3710873707308170 Mg
   0.8362978935485089    1.0085628074114872    0.5044069720316411 Mg
   0.0173919777699045    0.0222577906257076   -0.0005867305602654 Mg
   0.1705697523596155    0.1762375686193444    0.0060307451974887 Mg
   0.3149992201003704    0.3283205046943055    0.0052963514160773 Mg
   0.5192440378040423    0.5023885639771803    0.0190265329539666 Mg
   0.6815969052534545    0.6444330890148853    0.0223574694034057 Mg
   0.8124203212835713    0.8340860815280817   -0.0054763896592791 Mg
   0.1665948356065242   -0.0025943378627055    0.1712022565565468 Mg
   0.3348490213139146    0.1543934650123658    0.1696880957378841 Mg
   0.5047467105054612    0.3437881971643446    0.1565623595462839 Mg
   0.6614306538404788    0.4883532156747027    0.1997717352993726 Mg
   0.7990557434725372    0.6767637905211288    0.1429797285055529 Mg
   0.3505846060379298    0.0045533198337806    0.3416230520548743 Mg
   0.5189310627892397    0.1667855931470951    0.3404044248299011 Mg
   0.6471772161328790    0.3398910932068241    0.3385774200306390 Mg
   0.8214392670707608    0.5033086611691482    0.3399335706513458 Mg
   0.5087175674737821    0.0036022138708196    0.5084364412091331 Mg
   0.6824756732776708    0.1746301591688892    0.5093715768114985 Mg
   0.8307306738106639    0.3376536170938208    0.4983442110786177 Mg
   0.6341635709064254    0.0152265635632905    0.6820381101216730 Mg
   0.8070766853980325    0.1654629183214974    0.6805987344350379 Mg
   0.8321468713477996   -0.0193260552218912    0.8307221589236422 Mg
   0.0349170290824096    0.3547662997625522    0.9793201839028373 Mg
   0.1581564897577698    0.5120255198673339    0.0030440202853086 Mg
   0.3445904660915233    0.6848271943073992    1.0131618310376236 Mg
   0.5063798804425198    0.8391935465580944    0.0079636060693683 Mg
  -0.0000789004639433    0.1585544506666902    0.1526812807517365 Mg
   0.1793544962457544    0.3443419309601938    0.1804255667080972 Mg
   0.3288271589732750    0.4964746590477968    0.1726356001884035 Mg
   0.4998486242407607    0.6392898076574260    0.1495969865155071 Mg
   0.6621511944906979    0.8351642575848638    0.1736374350888838 Mg
   0.9939509387463942    1.0189892814169723    0.3183833827512487 Mg
   0.1471620609403490    0.1532041012971402    0.3426940118948729 Mg
   0.3175950249667918    0.3381177808038741    0.3211882827848897 Mg
   0.5048460458668377    0.5079606052799643    0.3478926338073569 Mg
   0.6601218862248394    0.6490029600066193    0.3191588111287104 Mg
   0.8231688690537660    0.8379008237440032    0.3297758151413454 Mg
   0.1684097652717588    0.0161372012389305    0.5117907363820599 Mg
   0.3108566129444415    0.1622590590896954    0.4943018606192974 Mg
   0.5277810456898396    0.3223633258924390    0.5059921193849733 Mg
   0.6407676547932110    0.5049646310018272    0.5235591132421334 Mg
   0.8492517805717510    0.6612620819681819    0.4762788488706098 Mg
   0.3294403045503881    0.9935046711787431    0.6661434168358975 Mg
   0.5070660250066669    0.1572829650311936    0.6548027411840175 Mg
   0.6832722085393904    0.3132740112371786    0.6728589426200435 Mg
   0.8550301242925958    0.4921652696646974    0.6733980960945294 Mg
   0.4781585605879244    0.0305757321179509    0.8314583399925761 Mg
   0.6427334200275544    0.1523191386670682    0.8495863938555477 Mg
   0.8354745027148092    0.3354622643379455    0.8531803009796647 Mg
   0.0003145954425266    0.6834835049307367    1.0073615384785815 Mg
   0.1718088174249338    0.8326213678489319    0.0038789358479623 Mg
   0.0060766435184578    0.4830891451724794    0.1733409452703729 Mg
   0.1692313719693397    0.6552867042215799    0.1853084794720340 Mg
   0.3300280859808233    0.8109720154144174    0.1579186068080692 Mg
  -0.0077100701447121    0.3558930124371287    0.3197621594043376 Mg
   0.1756854010054547    0.5151203407271693    0.3425387880623460 Mg
   0.3305370878939484    0.6642984561720975    0.3492995659877043 Mg
   0.4850094521846888    0.8248104018453725    0.3289059280435369 Mg
   0.0233124538808245    0.1667867746988200    0.4821878460014324 Mg
   0.1862487793325031    0.3240664416502005    0.5076084841310087 Mg
   0.3226249425207879    0.5371048912419505    0.4987162797063761 Mg
   0.5058176435494679    0.6445242970581595    0.5083657897811253 Mg
   0.6693052414589968    0.8543014559013169    0.4846070612447052 Mg
   0.9776744576681845    0.9861683953538128    0.6568706575147846 Mg
   0.1756488627947921    0.1599745070060879    0.6414320026228149 Mg
   0.3433678790605321    0.3436206512478086    0.6544628769089313 Mg
   0.4850488255906676    0.4849794758415569    0.6818211378522506 Mg
   0.6354407311977434    0.6354223372062352    0.6553944731302983 Mg
   0.8400749075238267    0.8380837797577436    0.6448409306651592 Mg
   0.1931483908858597   -0.0225934438201039    0.8281727349795712 Mg
   0.3246411380893046    0.1743626093435611    0.8340691248123362 Mg
   0.5131494180757483    0.3559811689657595    0.8204011382734955 Mg
   0.6720201439916016    0.4975332322903752    0.8367442521723720 Mg
   0.8515498345252505    0.6802706595818497    0.8546451444793883 Mg
   1.0034243419641322    0.8174353246273178    0.1545814063124074 Mg
  -0.0164816767744172    0.6830722366551458    0.3300228253260160 Mg
   0.1377224129517076    0.8273898121031202    0.3337253412666218 Mg
   0.0369112227682185    0.5000757063150493    0.4750515460586912 Mg
   0.1747762962166356    0.6687142575880313    0.4934482620688606 Mg
   0.3411245094396912    0.8340042734030237    0.5082010710985725 Mg
   0.9894037047765748    0.3053912494018254    0.6894555715797301 Mg
   0.1927569099185463    0.5002779808413176    0.6752184759633595 Mg
   0.3254847126965618    0.6726671755820567    0.6681512133784396 Mg
   0.5040849426661528    0.8506093431224389    0.6851551064566198 Mg
   0.0052095064105438    0.1599303881080771    0.8383242232161447 Mg
   0.1599992397936390    0.3319812858429726    0.8475889288849994 Mg
   0.3156683819385052    0.5049687501563157    0.8044104328100714 Mg
   0.4973074683203661    0.6636885494662629    0.8157550003917892 Mg
   0.6847064967846083    0.8306444335115003    0.8393016524598224 Mg
   1.0103919364875040    0.8526065202442960    0.4884342518655644 Mg
  -0.0033084850276292    0.6870858818403873    0.6641765334811524 Mg
   0.1659759448287718    0.8256596533342031    0.6625993087072641 Mg
  -0.0094839595648403    0.5164227935957654    0.8428803774141652 Mg
   0.1746805627950849    0.6382240947985880    0.8509072435853737 Mg
   0.3599920156646358    0.8289398693217711    0.8425245192702567 Mg
  -0.0080924687215531    0.8610332725424539    0.8374667943141658 Mg
   0.5007073020110766    0.4801221991078052    0.4899186733208621 Mg
   0.8333333333333333    0.1666666666666667    0.2333363333719053 O
  -0.0006425537328259    0.2977810982286259    0.1620624614940599 O
  -0.0035376908977278    0.1860673495557920    0.3032738594607717 O
   0.4674492102093811    0.1378355368408833    0.2210951643959864 O
   0.6682217903992625    0.3436308328743751    0.1674287931622278 O
   0.8276827796865202    0.4993200617987568    0.1409060989238989 O
   0.0091025390986705    0.6680111119926699    0.1649717184138575 O
   0.6832861775459421    0.1702003633277563    0.3293278973872788 O
   0.8437215684159772    0.3338249638309672    0.3086669500933091 O
   0.0246725109320246    0.4856553411308982    0.3249002292510110 O
   0.8209475064285787    0.1531376552342188    0.5037555464591263 O
   0.0041459754829497    0.3343886580761273    0.5017291181223364 O
  -0.0058478194279723    0.1637711524596753    0.6846724401648826 O
   0.1577227399851899    0.1752935828015371    0.1716708958309844 O
   0.3356592715551840    0.3099078754271773    0.1773916867464423 O
   0.4854551179497605    0.5000905870552478    0.1627113738382361 O
   0.6617279705238635    0.6667634656171521    0.1687059132528189 O
   0.8348892109983402    0.8245200475706729    0.1562614685770591 O
   0.0068062849493007    0.0198747749138023    0.1396288060685305 O
   0.3264422053035390    0.1585131296629688    0.3319339261186731 O
   0.5051151106442927    0.3336262607254711    0.3363794449671678 O
   0.6922742017457862    0.5076309132346994    0.3247307982880309 O
   0.8222103498244119    0.6576055221182178    0.3131445368955466 O
  -0.0050517110884007    0.8427187804329703    0.3554773960289372 O
   0.4867628122902632    0.1751264877938777    0.5116257479192551 O
   0.6616185874855283    0.3306095871385685    0.5069753960599167 O
   0.8198239576581793    0.5122337901765657    0.5197779442408926 O
  -0.0070305069390628    0.6560577287241345    0.5203599494213040 O
   0.6675690946807413    0.1683105022391699    0.6590362894858970 O
   0.8511345643071512    0.3011384230313659    0.6771896668223401 O
  -0.0022267447488726    0.5191747458567570    0.6559355729164346 O
   0.8312747536998992    0.1918102236656247    0.8424506402500533 O
   0.0056091652826844    0.3047862153533339    0.8436177927787364 O
  -0.0099386833535902    0.1740591508949230    0.0030694418130368 O
   0.1616481321335118    0.4787771986881725    0.1554880401146054 O
   0.3170257970022567    0.6501087269594206    0.1800196383140880 O
   0.5075817181964575    0.8093765000678906    0.1481039482801096 O
   0.6633938840703106   -0.0197238813731383    0.1940050510303451 O
   0.1622262353982903    0.3207755654617810    0.3237008572643392 O
   0.3259015488437861    0.5163275914608677    0.3139942423836424 O
   0.5001680443897656    0.6600668709345530    0.3404136821696057 O
   0.6597344772336301    0.8192287597335467    0.3338042205384004 O
   0.8258588583318776   -0.0143908084991117    0.3128684335590406 O
   0.1740715102695632    0.1665848087703047    0.4731173754008947 O
   0.3461970458825033    0.3487299342504288    0.4876423335180546 O
   0.6779507605300243    0.6505884902809572    0.5107332117421178 O
   0.8214430047450847    0.8204320870750765    0.4740149126067849 O
  -0.0157827031386810   -0.0001534171904350    0.4730650297774193 O
   0.3345322449204163    0.1751507648005850    0.6544015667992157 O
   0.5019661586463446    0.3490793641471220    0.6400813578612816 O
   0.6797815850691455    0.5073705695571646    0.6852253361079761 O
   0.8119257340337916    0.6508513660441856    0.6535842421563363 O
  -0.0091124813050940    0.8217122021495743    0.6432661873594030 O
   0.4851338415264452    0.1786163196453907    0.8247083959625654 O
   0.6638061006593143    0.3139762325951572    0.8366920848512666 O
   0.8233558056577905    0.5019670605838644    0.8213099343522671 O
   0.0060707546775302    0.6881582745797757    0.8418096286321902 O
   0.6965938149783517    0.1591278356830800   -0.0159996524679568 O
   0.8355197697036604    0.3322719186114024   -0.0088041113203759 O
   0.0150546924070800    0.4905256077494028   -0.0090657219998366 O
   0.1543364745406929    0.8542771224904758    0.1488556686995418 O
   0.3324241235707845   -0.0174449305873478    0.1550262159360948 O
   0.1425450701324507    0.6539331611709654    0.3232138697303257 O
   0.3215906232676132    0.8327843492817175    0.3299304569641137 O
   0.5107047882284319   -0.0201396193279583    0.3397903008455323 O
   0.1740299848337388    0.5076158412515523    0.4994348178462257 O
   0.3266986631754468    0.6959570428130674    0.5018995281473573 O
   0.4924867977996444    0.8366828762029409    0.4942433758305417 O
   0.6784985018874775    0.0097287136748547    0.5002507732845826 O
   0.1983144969825528    0.3229685886973288    0.6924465538737328 O
   0.3326371286889730    0.5027277471710908    0.6456249412100165 O
   0.5129708278505491    0.6778994059991070    0.6641888262279458 O
   0.7008776508382983    0.8280214275438967    0.6509799800027967 O
   0.8104926876622375   -0.0105149734539535    0.6600584498417889 O
   0.1699727480057073    0.1504577100888851    0.8530041323804838 O
   0.3315254101521952    0.3234755377943754    0.8140920701685370 O
   0.5299152865200852    0.5176586605643353    0.8301864100467399 O
   0.6864533578115269    0.6636436160840744    0.8399772870475388 O
   0.8363073626424169    0.8273702696798549    0.8283161896925895 O
   0.0148348385242659    0.0046990135491279    0.8336453607302121 O
   0.3238128001561899    0.1924350619381107    0.0256204986515255 O
   0.4982317900651703    0.3338967956344837    0.0037444815795350 O
   0.7008491017880589    0.5102163332173070    0.0138732582651771 O
   0.8620524499031724    0.6745012655373609   -0.0088665607905363 O
   0.0211349218831874    0.8227488280692624   -0.0107804622583070 O
   0.1644490376739226    0.0024248212228952    0.3355402066721069 O
   0.1768597665373685    0.8199098354102027    0.5199903176881477 O
   0.3366310805659720    0.0025204226299689    0.4971582740843152 O
   0.1594874623058130    0.6463639941315278    0.6563919487186588 O
   0.3219654746426778    0.8207993043510079    0.6480174523035218 O
   0.4856026894195338    0.0114527867641559    0.6646687730178988 O
   0.1837794848612413    0.4992397498946623    0.8358351028370655 O
   0.3183288590906125    0.6709314539408486    0.8330354678006882 O
   0.5029239439111295    0.8420409301704801    0.8338279092078869 O
   0.6641312447375578   -0.0182029341805409    0.8330157719455036 O
   0.1660692409302562    0.3321650292116495    0.0180996781630161 O
   0.3384391747002891    0.5059532135296017   -0.0130847152697172 O
   0.5157098817648607    0.6382468632930003   -0.0388420610307183 O
   0.6485669473388652    0.8168160427374871    0.0236564567133094 O
   0.8452364934101253   -0.0179199144686292    0.0167701937272131 O
   0.1815719267179007   -0.0223614786654667    0.6658733496113842 O
   0.1775249818507454    0.8089040857402059    0.8461811257956869 O
   0.3297006119986809   -0.0046279278294636    0.8089226756797049 O
   0.1828718826597977    0.6531600645566069   -0.0158416947065773 O
   0.3493629831462050    0.8192385982080918   -0.0112345933813340 O
   0.4898905305479639    0.0012856128518706    0.0093909191975313 O
   0.1718088588835134    0.0412376936289483    0.0219433087089371 O
