KPOINTS from doped, with reciprocal_density = 200/Å⁻³
0
Gamma
11 11 11
