KPOINTS from doped, with reciprocal_density = 205/Å⁻³
0
Gamma
11 11 7
