-50.0% N(Distort)=3 ~[0.5,0.5,0.5]      
   1.00000000000000     
    12.5998379999999983    0.0000000000000004    0.0000000000000004
     0.0000000000000004   12.5998379999999983   -0.0000000000000004
    -0.0000000000000004   -0.0000000000000004   12.5998379999999983
   Mg   O 
   109   107
Direct
  0.6336672903233891 -0.0042760198666905  0.0276572174251381
  0.7062451139246254  0.0142123943539553 -0.0902201377449236
  0.8378567954003305  0.0589972467286576  0.1694072012769033
  0.3250657893132282 -0.0966280568585348  0.9023047284733982
  0.5312071464304300  0.1513666322522733  0.0269740879858294
  0.7477278793167973  0.2989171036668625 -0.0839217129697642
  0.7743320408333473  0.4251634066785211 -0.1353971588354418
  0.5091607212591440  0.0249779786309646  0.1214617790735825
  0.6564490639743614  0.2556306477391609 -0.0639552256471642
  0.8395811895893389  0.2878373705477488  0.1645877139795859
  0.6849682572472876 -0.0164144556687541  0.3167666107022900
  0.8475692401969405  0.1770568534391793  0.3359887618205915
  0.8347366885274635 -0.0185785868286736  0.4929863121839167
  0.9922387153994034 -0.0067341393193657  0.0199474770368356
  0.1243989971272945  0.1581112655714739 -0.0324237207895243
  0.3128895074549164  0.3123655002613082  0.0440665688256498
  0.5367613787045152  0.5023493535318303  0.0373033943161874
  0.6705842124036744  0.8000596543390545 -0.1883846709363593
  0.8875049529900574  0.9106262691007531  0.1464741018759279
  0.1480526235260258 -0.0120704810600391  0.1390173833585469
  0.3577706706413298  0.1833997002217675  0.1699282110539772
  0.4992876259869733  0.3076402860535631  0.2361558903111006
  0.7367687243578782  0.4228087596850053  0.1092826813370048
  0.8518523300358116  0.6481185240172470  0.1331133489524802
  0.2676235961327394 -0.0184540084044005  0.3141358279919377
  0.4402646110358071  0.0864381985809498  0.3659146259051148
  0.6929876136360456  0.4203829252652693  0.3197167572024237
  0.9531761621121382  0.5707164978460432  0.5425225565236437
  0.5191092580272657  0.0086222719431349  0.4584093861451431
  0.7372998534350559  0.3074862982812315  0.7023451648287715
  0.8211478484559046  0.3989832513825948  0.5092816967242337
  0.6065225336966130  0.0043989658373109  0.6305561010603519
  0.8803860867546678  0.1745102055909020  0.6635767694212759
  0.8444634465747776  0.0430138747873567  0.8185516400703162
  0.0147216047071823  0.3266636657549711  0.0164971022838416
  0.1684982061397908  0.4833422498717571  0.0234819498135134
  0.4101539859548020  0.6712666927627943 -0.0151027365944338
  0.5004158008770148  0.8266221049617345  0.0462867022584803
 -0.0002365396098585  0.1728968652962496  0.1714320635798276
  0.1872984484658850  0.3982337317199183  0.1802120172940068
  0.3037583148600493  0.5113658106297073  0.1466832597598037
  0.2694559613219236  0.6469854727736646  0.0059308051761141
  0.7003802471577432  0.7525328159511864  0.0806344942969465
 -0.0242234956605247  0.0167203401576199  0.3404172418563458
  0.1557125697550239  0.1832144199327191  0.3391529614998876
  0.4728098346299173  0.4224205710108621  0.3717787366191641
  0.5128556899580852  0.4769386065402500  0.3182046063037482
  0.7092308992235462  0.6550486299435753  0.2608050088153443
  0.8139173317297518  0.8397266760205749  0.3659755902008299
  0.1438695921364586  0.0417862825946082  0.5099583682277337
  0.3313902900952774  0.1709316792658120  0.4975076112011351
  0.6484387661319045  0.1523237008546174  0.4974696388644222
  0.3650649382055533  0.4226944062933085  0.3639756264685228
  0.8375112077146013  0.6694367247786551  0.5132398527320285
  0.2935189055725269 -0.0138778020353559  0.6673918664621453
  0.5086325356588667  0.2031521314915611  0.6868594514880487
  0.6318002972197294  0.3562182233166004  0.6112404204926611
  0.9472691895216330  0.4927449833237098  0.8741293201570279
  0.4785904705915963  0.0508872450862034  0.8464208612237225
  0.6201569954304441  0.1379217595391141  0.8239605962820813
  0.9030493452139916  0.3010841941632822  0.9071005956099938
  0.0348398745799457  0.6859842391170945  0.0749411685922466
  0.2229124492198991  0.8331639648641282  0.0107383116404933
  0.0317534933008635  0.4947038134485585  0.1561684577439001
  0.0925165560836563  0.8996015700075958 -0.0343371727339305
  0.3209081097476624  0.8081319454623817  0.1780862292785109
  0.1122505701641758  0.3091818938591619  0.2380537204144478
  0.1967232998725010  0.5450231152504591  0.5418043449135647
  0.3021686515617162  0.6797293050532989  0.2981949733424318
  0.5728192668286186  0.8685085797066207  0.3131401143643995
  0.0135776751568575  0.1916219050423500  0.4791892814488252
  0.1285295316051255  0.3047165174891414  0.4887068442315425
  0.3733104824240168  0.5467575644831399  0.4848735849495162
  0.4907711511931160  0.7030090662545229  0.5147489110174350
  0.7191535849907706  0.8516541782186250  0.2129457662300778
  0.0072682755574831 -0.0008280784518414  0.6623690653024423
  0.1616962720065617  0.1730317407205959  0.6578405302921680
  0.3488025782225910  0.4266292116809600  0.5842634425499719
  0.2492318356812750  0.1002463028611838  0.2413700825607022
  0.6839742090283454  0.6528995910415643  0.6628911392421152
  0.8531786700327232  0.8378921476885167  0.6464619487939969
  0.1610566151266649 -0.0135609106710475  0.8235163783356718
  0.3295573685919682  0.1649205419976489  0.8551517406395492
  0.4576221860747517  0.3606731601680465  0.0577695274767036
  0.6626839702788951  0.4983217108906568  0.8434849418391402
  0.6060542710841953  0.2978219645095399  0.1111806771780907
  0.0315150866719626  0.8345786738510553  0.1318493331556762
  0.0376492545098809  0.6640644195852781  0.3098780110730275
  0.1464434437111840  0.8328375792783479  0.3213808714226111
 -0.0294089164007095  0.4763763771839351  0.4362809323161427
  0.1886729607528886  0.6540680082792469  0.5502016814654320
  0.3525488177397142  0.8350849396085346  0.5032754736292377
 -0.0254619847221281  0.3204414185849901  0.6903372817919317
  0.1777432914599269  0.5070007153761356  0.7180959567461558
  0.3227686165995791  0.6686208634977536  0.6807734547099642
  0.5205541707818214  0.7928629695131988  0.6830655483435487
  0.0771963915537458  0.4172771171427232  0.6259180323283642
  0.1264897897567312  0.3191023977061334  0.8005704085876184
  0.3078111739841744  0.4874909127985465  0.8374455368697172
  0.4415758324156418 -0.0428667447663051  0.2461722412887156
  0.5386098218203637  0.9058797916837245  0.8862876553352897
  0.0049629612319575  0.8203508719304036  0.5208334776574041
 -0.4071373033745925  0.8881437370727764  0.6020616827250221
  0.1591321959027144  0.8380930678407715  0.6694595689518145
  0.0392858277182982  0.6124434403016049  0.8215344318447030
  0.1843649036735114  0.6756059348349184  0.8391480254701641
  0.3723282654818627  0.8665447374378847  0.7866886935622651
  0.4406902557974774  0.0566728229963781  0.6009462239986482
  0.5364472486784664  0.5053670981480018  0.4983351404298141
  0.7505351055995331  0.1991663805704954 -0.7134097915854665
 -0.0122257882958157  0.3359396126139486  0.1579988333577872
  0.0053980218072727  0.1677569569454897  0.3295969812668704
  0.4923101937375511  0.1662831252669590  0.1750362145485271
  0.6812680686773327  0.3352346147577930  0.1923877306008853
  0.6913265009170944  0.5825899113650075  0.0493369464811845
 -0.0331665360021529  0.6333692811890217  0.1990895243193288
  0.7148070672421398  0.1476620151030198  0.3770472970509544
  0.6768536633611382  0.2739691516361883  0.3939196046149980
 -0.0045107765712047  0.4701759043780132  0.3117864177858904
  0.8371202541824300  0.1354486336017951  0.5378053516572685
 -0.0042941966449531  0.3330418061079822  0.5037095720738651
 -0.0041528008229788  0.1621166641716144  0.6770589890742771
  0.1475702160022868  0.1102450091370213  0.2031888078909660
  0.3342388226602761  0.3356367790227198  0.1801517768344925
  0.6589539836746036  0.5493096761959892  0.3051343165506455
  0.7960413268047809  0.5262165272102569  0.3181713110715607
  0.8433657651100799  0.7934498001653663  0.1607077768101215
 -0.0033789239513968  0.0009314328455488  0.1999855192409792
  0.2282087801856544  0.1122571630123035  0.3566049168104183
  0.3991244388733263  0.5056266864434382  0.2439629851293895
  0.6121645535790413  0.5993857922390327  0.4085880453430300
  0.8399814549469121  0.6523394239116337  0.3292025130758327
  0.0080410158685217  0.8746329698410568  0.3583338067825123
  0.4701732240445475  0.1810256118876157  0.4952015415632970
  0.6885674781964414  0.3338670084086353  0.4911858411502860
  0.1035511218287139  0.5568185268759209  0.4402653140102891
 -0.0008930783591101  0.6801741670046749  0.5049950992790430
  0.6231352892426792  0.1713465317367207  0.6578238457888428
  0.8397672662588247  0.3432517934124061  0.6723739059851350
 -0.0044275097515411  0.4739361974849149  0.7405446615726191
  0.7224126433022756  0.0610437501005540  0.7397451225823182
 -0.0042877760845136  0.3024520480075819  0.8295816721099391
 -0.5880546084600391  0.1721952008127122  0.0338348647623458
  0.1205698573660637  0.5318920143494742 -0.1234581256279265
  0.3473345723683493  0.6615045270941426  0.1434017854253614
  0.5056346705123514  0.8035755470669089  0.1869571599919543
  0.6331368583421194  0.0834595288149569  0.1465035563164279
  0.2161430010885609  0.3757252873930159  0.3308414288095108
  0.3086803026835384  0.5444157293178614  0.3378669752676587
  0.5053231270218657  0.6220009532362573  0.3546580024706532
  0.6451776214201476  0.7427469196908685  0.3858361728787316
  0.8265173687767093 -0.0016469948647642  0.3207005142152420
  0.1849053087355257  0.1993452751211403  0.4874761552623206
  0.3572182568960092  0.3334203743249545  0.4879776555779547
  0.5883625127693107  0.6324872057144811  0.5618489087972981
  0.8224871442486900  0.8335148294266274  0.4882167074711814
 -0.0066354403135158 -0.0211908591591736  0.5088889093701886
  0.2772903600005787  0.1508056639687745  0.6519317743951066
  0.5364494820356266  0.3201647064823650  0.4030091327325077
  0.6465578325568027  0.4867741822103646  0.6570476160399498
  0.8433233603233194  0.6752652505296307  0.6650393688318046
  0.0055073170717402  0.8147148986866026  0.6709334829474853
  0.4956236028582726  0.1909250516132633  0.8300922154076932
  0.6702481936407580  0.3683504607169003  0.8023045871610601
  0.8362982023650664  0.5847323345525203  0.8094159995423079
 -0.0865865025519710  0.6689778506249517  0.7190076973016715
  0.7429406663929029  0.2543217514806959  0.1353433041996111
  0.8407654222986095  0.3490488721331917  0.0168619402254409
 -0.0069675543069521  0.4954170437984615  0.0108019335664929
  0.1617999935306264  0.8497265241011844  0.1624079308695028
  0.3309801741426000  0.0222552777279066  0.1599835278033267
  0.2193978207185590  0.3932924542230418  0.5798086273988186
  0.1964526457697066  0.7262320805022009  0.2769750879697389
  0.5730742520833820  0.0589851226981004  0.3621205596663339
  0.0786703460610808  0.4664552177300450  0.4717755994535010
  0.3355340333309908  0.6848959579904900  0.5252668086900044
  0.5157266469677207  0.8497251483987112  0.5161420670367527
  0.6807097640002440  0.0001845271050354  0.5091637275396196
  0.1734346003300358  0.3090025630768838  0.6944768309672701
  0.3248927282454251  0.5297374506444106  0.7084882438219982
  0.4682460861345533  0.6609291930021011  0.6775897794061194
  0.5804774050581443  0.7972706977770230  0.9510181061755049
  0.8609068637326790  0.0266634595137853  0.6680900855142429
  0.1790054686463092  0.1712917828628420  0.8251957837091809
  0.3476345373118093  0.2849008624906278  0.8937820429982013
  0.7495327233602771  0.5796997984055149  0.7528142749612016
  0.6958944299467120  0.6264562873578371  0.8481810673953316
  0.7142142350953353  0.8128931083610368  0.6862398772819089
  0.9263141242228700 -0.2364985399104229  0.9407188332286606
  0.1948678051306718  0.2537731853855895  0.0698993242881110
  0.4179197220364121  0.3925172018233295 -0.1018995406915508
  0.6788208151617149  0.4657884972330105 -0.0236220968726139
  0.8301470497313085  0.6736638632428040 -0.0070107834273969
 -0.0497726116337615  0.8561960663738001 -0.0019609133069263
  0.1496576711685423  0.0352215435440950  0.4111327856623433
  0.1869411904118881  0.8062912977219785  0.5302975771715931
  0.2833891891318078 -0.0067182773068652  0.5063482355842693
  0.5394439917179926  0.3838227535086358  0.7124721983227172
  0.3315160454511997  0.8246825594608634  0.6713926257557709
  0.5386616573222868 -0.0480251222096467  0.7396054071960306
  0.2016482687572047  0.3318443101280124  0.9060095718357605
  0.3241609623380694  0.6378665096887433  0.8448843560466763
  0.4877778186947335  0.7384095534026097  0.8356654582770896
  0.6709254960468261  0.9608238292994975  0.8091134333261345
  0.1700237255251726  0.3643877806805620  0.0225972495674257
  0.3202538358358115  0.5043461150482054  0.0072312730546127
  0.5043202620020215  0.6484052220766542  0.0040161346405785
  0.6761641001274451  0.8493099526260027  0.0038123080346553
  0.8524353082778923  0.0249332331027007  0.0185586338268996
  0.1403403323394619 -0.0037593326595702  0.6766530384133617
  0.0447419978558364  0.8188445558749995  0.8346642447457526
  0.3348474284067495  0.0044944412962235  0.8198043662601062
  0.1366044521751824  0.6468019939190208  0.0132780218803708
  0.3515199655456219  0.8910507434569993  0.0511088074726110
  0.4973339834534772 -0.0262098862791503  0.0077808541296446
  0.1691248356324213  0.0335059140520323 -0.0114589990055725
 
  0.00000000E+00  0.00000000E+00  0.00000000E+00
  0.00000000E+00  0.00000000E+00  0.00000000E+00
  0.00000000E+00  0.00000000E+00  0.00000000E+00
  0.00000000E+00  0.00000000E+00  0.00000000E+00
  0.00000000E+00  0.00000000E+00  0.00000000E+00
  0.00000000E+00  0.00000000E+00  0.00000000E+00
  0.00000000E+00  0.00000000E+00  0.00000000E+00
  0.00000000E+00  0.00000000E+00  0.00000000E+00
  0.00000000E+00  0.00000000E+00  0.00000000E+00
  0.00000000E+00  0.00000000E+00  0.00000000E+00
  0.00000000E+00  0.00000000E+00  0.00000000E+00
  0.00000000E+00  0.00000000E+00  0.00000000E+00
  0.00000000E+00  0.00000000E+00  0.00000000E+00
  0.00000000E+00  0.00000000E+00  0.00000000E+00
  0.00000000E+00  0.00000000E+00  0.00000000E+00
  0.00000000E+00  0.00000000E+00  0.00000000E+00
  0.00000000E+00  0.00000000E+00  0.00000000E+00
  0.00000000E+00  0.00000000E+00  0.00000000E+00
  0.00000000E+00  0.00000000E+00  0.00000000E+00
  0.00000000E+00  0.00000000E+00  0.00000000E+00
  0.00000000E+00  0.00000000E+00  0.00000000E+00
  0.00000000E+00  0.00000000E+00  0.00000000E+00
  0.00000000E+00  0.00000000E+00  0.00000000E+00
  0.00000000E+00  0.00000000E+00  0.00000000E+00
  0.00000000E+00  0.00000000E+00  0.00000000E+00
  0.00000000E+00  0.00000000E+00  0.00000000E+00
  0.00000000E+00  0.00000000E+00  0.00000000E+00
  0.00000000E+00  0.00000000E+00  0.00000000E+00
  0.00000000E+00  0.00000000E+00  0.00000000E+00
  0.00000000E+00  0.00000000E+00  0.00000000E+00
  0.00000000E+00  0.00000000E+00  0.00000000E+00
  0.00000000E+00  0.00000000E+00  0.00000000E+00
  0.00000000E+00  0.00000000E+00  0.00000000E+00
  0.00000000E+00  0.00000000E+00  0.00000000E+00
  0.00000000E+00  0.00000000E+00  0.00000000E+00
  0.00000000E+00  0.00000000E+00  0.00000000E+00
  0.00000000E+00  0.00000000E+00  0.00000000E+00
  0.00000000E+00  0.00000000E+00  0.00000000E+00
  0.00000000E+00  0.00000000E+00  0.00000000E+00
  0.00000000E+00  0.00000000E+00  0.00000000E+00
  0.00000000E+00  0.00000000E+00  0.00000000E+00
  0.00000000E+00  0.00000000E+00  0.00000000E+00
  0.00000000E+00  0.00000000E+00  0.00000000E+00
  0.00000000E+00  0.00000000E+00  0.00000000E+00
  0.00000000E+00  0.00000000E+00  0.00000000E+00
  0.00000000E+00  0.00000000E+00  0.00000000E+00
  0.00000000E+00  0.00000000E+00  0.00000000E+00
  0.00000000E+00  0.00000000E+00  0.00000000E+00
  0.00000000E+00  0.00000000E+00  0.00000000E+00
  0.00000000E+00  0.00000000E+00  0.00000000E+00
  0.00000000E+00  0.00000000E+00  0.00000000E+00
  0.00000000E+00  0.00000000E+00  0.00000000E+00
  0.00000000E+00  0.00000000E+00  0.00000000E+00
  0.00000000E+00  0.00000000E+00  0.00000000E+00
  0.00000000E+00  0.00000000E+00  0.00000000E+00
  0.00000000E+00  0.00000000E+00  0.00000000E+00
  0.00000000E+00  0.00000000E+00  0.00000000E+00
  0.00000000E+00  0.00000000E+00  0.00000000E+00
  0.00000000E+00  0.00000000E+00  0.00000000E+00
  0.00000000E+00  0.00000000E+00  0.00000000E+00
  0.00000000E+00  0.00000000E+00  0.00000000E+00
  0.00000000E+00  0.00000000E+00  0.00000000E+00
  0.00000000E+00  0.00000000E+00  0.00000000E+00
  0.00000000E+00  0.00000000E+00  0.00000000E+00
  0.00000000E+00  0.00000000E+00  0.00000000E+00
  0.00000000E+00  0.00000000E+00  0.00000000E+00
  0.00000000E+00  0.00000000E+00  0.00000000E+00
  0.00000000E+00  0.00000000E+00  0.00000000E+00
  0.00000000E+00  0.00000000E+00  0.00000000E+00
  0.00000000E+00  0.00000000E+00  0.00000000E+00
  0.00000000E+00  0.00000000E+00  0.00000000E+00
  0.00000000E+00  0.00000000E+00  0.00000000E+00
  0.00000000E+00  0.00000000E+00  0.00000000E+00
  0.00000000E+00  0.00000000E+00  0.00000000E+00
  0.00000000E+00  0.00000000E+00  0.00000000E+00
  0.00000000E+00  0.00000000E+00  0.00000000E+00
  0.00000000E+00  0.00000000E+00  0.00000000E+00
  0.00000000E+00  0.00000000E+00  0.00000000E+00
  0.00000000E+00  0.00000000E+00  0.00000000E+00
  0.00000000E+00  0.00000000E+00  0.00000000E+00
  0.00000000E+00  0.00000000E+00  0.00000000E+00
  0.00000000E+00  0.00000000E+00  0.00000000E+00
  0.00000000E+00  0.00000000E+00  0.00000000E+00
  0.00000000E+00  0.00000000E+00  0.00000000E+00
  0.00000000E+00  0.00000000E+00  0.00000000E+00
  0.00000000E+00  0.00000000E+00  0.00000000E+00
  0.00000000E+00  0.00000000E+00  0.00000000E+00
  0.00000000E+00  0.00000000E+00  0.00000000E+00
  0.00000000E+00  0.00000000E+00  0.00000000E+00
  0.00000000E+00  0.00000000E+00  0.00000000E+00
  0.00000000E+00  0.00000000E+00  0.00000000E+00
  0.00000000E+00  0.00000000E+00  0.00000000E+00
  0.00000000E+00  0.00000000E+00  0.00000000E+00
  0.00000000E+00  0.00000000E+00  0.00000000E+00
  0.00000000E+00  0.00000000E+00  0.00000000E+00
  0.00000000E+00  0.00000000E+00  0.00000000E+00
  0.00000000E+00  0.00000000E+00  0.00000000E+00
  0.00000000E+00  0.00000000E+00  0.00000000E+00
  0.00000000E+00  0.00000000E+00  0.00000000E+00
  0.00000000E+00  0.00000000E+00  0.00000000E+00
  0.00000000E+00  0.00000000E+00  0.00000000E+00
  0.00000000E+00  0.00000000E+00  0.00000000E+00
  0.00000000E+00  0.00000000E+00  0.00000000E+00
  0.00000000E+00  0.00000000E+00  0.00000000E+00
  0.00000000E+00  0.00000000E+00  0.00000000E+00
  0.00000000E+00  0.00000000E+00  0.00000000E+00
  0.00000000E+00  0.00000000E+00  0.00000000E+00
  0.00000000E+00  0.00000000E+00  0.00000000E+00
  0.00000000E+00  0.00000000E+00  0.00000000E+00
  0.00000000E+00  0.00000000E+00  0.00000000E+00
  0.00000000E+00  0.00000000E+00  0.00000000E+00
  0.00000000E+00  0.00000000E+00  0.00000000E+00
  0.00000000E+00  0.00000000E+00  0.00000000E+00
  0.00000000E+00  0.00000000E+00  0.00000000E+00
  0.00000000E+00  0.00000000E+00  0.00000000E+00
  0.00000000E+00  0.00000000E+00  0.00000000E+00
  0.00000000E+00  0.00000000E+00  0.00000000E+00
  0.00000000E+00  0.00000000E+00  0.00000000E+00
  0.00000000E+00  0.00000000E+00  0.00000000E+00
  0.00000000E+00  0.00000000E+00  0.00000000E+00
  0.00000000E+00  0.00000000E+00  0.00000000E+00
  0.00000000E+00  0.00000000E+00  0.00000000E+00
  0.00000000E+00  0.00000000E+00  0.00000000E+00
  0.00000000E+00  0.00000000E+00  0.00000000E+00
  0.00000000E+00  0.00000000E+00  0.00000000E+00
  0.00000000E+00  0.00000000E+00  0.00000000E+00
  0.00000000E+00  0.00000000E+00  0.00000000E+00
  0.00000000E+00  0.00000000E+00  0.00000000E+00
  0.00000000E+00  0.00000000E+00  0.00000000E+00
  0.00000000E+00  0.00000000E+00  0.00000000E+00
  0.00000000E+00  0.00000000E+00  0.00000000E+00
  0.00000000E+00  0.00000000E+00  0.00000000E+00
  0.00000000E+00  0.00000000E+00  0.00000000E+00
  0.00000000E+00  0.00000000E+00  0.00000000E+00
  0.00000000E+00  0.00000000E+00  0.00000000E+00
  0.00000000E+00  0.00000000E+00  0.00000000E+00
  0.00000000E+00  0.00000000E+00  0.00000000E+00
  0.00000000E+00  0.00000000E+00  0.00000000E+00
  0.00000000E+00  0.00000000E+00  0.00000000E+00
  0.00000000E+00  0.00000000E+00  0.00000000E+00
  0.00000000E+00  0.00000000E+00  0.00000000E+00
  0.00000000E+00  0.00000000E+00  0.00000000E+00
  0.00000000E+00  0.00000000E+00  0.00000000E+00
  0.00000000E+00  0.00000000E+00  0.00000000E+00
  0.00000000E+00  0.00000000E+00  0.00000000E+00
  0.00000000E+00  0.00000000E+00  0.00000000E+00
  0.00000000E+00  0.00000000E+00  0.00000000E+00
  0.00000000E+00  0.00000000E+00  0.00000000E+00
  0.00000000E+00  0.00000000E+00  0.00000000E+00
  0.00000000E+00  0.00000000E+00  0.00000000E+00
  0.00000000E+00  0.00000000E+00  0.00000000E+00
  0.00000000E+00  0.00000000E+00  0.00000000E+00
  0.00000000E+00  0.00000000E+00  0.00000000E+00
  0.00000000E+00  0.00000000E+00  0.00000000E+00
  0.00000000E+00  0.00000000E+00  0.00000000E+00
  0.00000000E+00  0.00000000E+00  0.00000000E+00
  0.00000000E+00  0.00000000E+00  0.00000000E+00
  0.00000000E+00  0.00000000E+00  0.00000000E+00
  0.00000000E+00  0.00000000E+00  0.00000000E+00
  0.00000000E+00  0.00000000E+00  0.00000000E+00
  0.00000000E+00  0.00000000E+00  0.00000000E+00
  0.00000000E+00  0.00000000E+00  0.00000000E+00
  0.00000000E+00  0.00000000E+00  0.00000000E+00
  0.00000000E+00  0.00000000E+00  0.00000000E+00
  0.00000000E+00  0.00000000E+00  0.00000000E+00
  0.00000000E+00  0.00000000E+00  0.00000000E+00
  0.00000000E+00  0.00000000E+00  0.00000000E+00
  0.00000000E+00  0.00000000E+00  0.00000000E+00
  0.00000000E+00  0.00000000E+00  0.00000000E+00
  0.00000000E+00  0.00000000E+00  0.00000000E+00
  0.00000000E+00  0.00000000E+00  0.00000000E+00
  0.00000000E+00  0.00000000E+00  0.00000000E+00
  0.00000000E+00  0.00000000E+00  0.00000000E+00
  0.00000000E+00  0.00000000E+00  0.00000000E+00
  0.00000000E+00  0.00000000E+00  0.00000000E+00
  0.00000000E+00  0.00000000E+00  0.00000000E+00
  0.00000000E+00  0.00000000E+00  0.00000000E+00
  0.00000000E+00  0.00000000E+00  0.00000000E+00
  0.00000000E+00  0.00000000E+00  0.00000000E+00
  0.00000000E+00  0.00000000E+00  0.00000000E+00
  0.00000000E+00  0.00000000E+00  0.00000000E+00
  0.00000000E+00  0.00000000E+00  0.00000000E+00
  0.00000000E+00  0.00000000E+00  0.00000000E+00
  0.00000000E+00  0.00000000E+00  0.00000000E+00
  0.00000000E+00  0.00000000E+00  0.00000000E+00
  0.00000000E+00  0.00000000E+00  0.00000000E+00
  0.00000000E+00  0.00000000E+00  0.00000000E+00
  0.00000000E+00  0.00000000E+00  0.00000000E+00
  0.00000000E+00  0.00000000E+00  0.00000000E+00
  0.00000000E+00  0.00000000E+00  0.00000000E+00
  0.00000000E+00  0.00000000E+00  0.00000000E+00
  0.00000000E+00  0.00000000E+00  0.00000000E+00
  0.00000000E+00  0.00000000E+00  0.00000000E+00
  0.00000000E+00  0.00000000E+00  0.00000000E+00
  0.00000000E+00  0.00000000E+00  0.00000000E+00
  0.00000000E+00  0.00000000E+00  0.00000000E+00
  0.00000000E+00  0.00000000E+00  0.00000000E+00
  0.00000000E+00  0.00000000E+00  0.00000000E+00
  0.00000000E+00  0.00000000E+00  0.00000000E+00
  0.00000000E+00  0.00000000E+00  0.00000000E+00
  0.00000000E+00  0.00000000E+00  0.00000000E+00
  0.00000000E+00  0.00000000E+00  0.00000000E+00
  0.00000000E+00  0.00000000E+00  0.00000000E+00
  0.00000000E+00  0.00000000E+00  0.00000000E+00
  0.00000000E+00  0.00000000E+00  0.00000000E+00
  0.00000000E+00  0.00000000E+00  0.00000000E+00
  0.00000000E+00  0.00000000E+00  0.00000000E+00
  0.00000000E+00  0.00000000E+00  0.00000000E+00
  0.00000000E+00  0.00000000E+00  0.00000000E+00
  0.00000000E+00  0.00000000E+00  0.00000000E+00
  0.00000000E+00  0.00000000E+00  0.00000000E+00
  0.00000000E+00  0.00000000E+00  0.00000000E+00
  0.00000000E+00  0.00000000E+00  0.00000000E+00
  0.00000000E+00  0.00000000E+00  0.00000000E+00
  0.00000000E+00  0.00000000E+00  0.00000000E+00
  0.00000000E+00  0.00000000E+00  0.00000000E+00
