# MAY WANT TO CHANGE NCORE, KPAR, AEXX, ENCUT, IBRION, LREAL, NUPDOWN, ISPIN, MAGMOM = Typical variable parameters
AEXX = 0.25
ALGO = Normal  # change to all if zhegv, fexcp/f or zbrent errors encountered, or poor electronic convergence
EDIFF = 3e-06
EDIFFG = -0.01
ENCUT = 600.0
GGA = Pe
HFSCREEN = 0.208
IBRION = 2
ICHARG = 1
ISIF = 3
ISMEAR = 2
KPAR = 4  # 2 or >=4 k-points in at least two directions
LASPH = True
LHFCALC = True
LMAXMIX = 4
LORBIT = 11
LREAL = Auto
NCORE = 16
NEDOS = 3000
NSW = 100
PREC = Accurate
PRECFOCK = Fast
SIGMA = 0.2
