KPOINTS from doped, with reciprocal_density = 320/Å⁻³
0
Gamma
11 11 3
