40.0% N(Distort)=2 ~[0.5,0.5,0.5]       
   1.00000000000000     
    12.5998379999999983    0.0000000000000004    0.0000000000000004
     0.0000000000000004   12.5998379999999983   -0.0000000000000004
    -0.0000000000000004   -0.0000000000000004   12.5998379999999983
   Mg   O 
   109   107
Direct
  0.6685668813108138 -0.0017193328834915  0.9983096979216599
  0.8349902454344530  0.1646128135270505 -0.0013616573455291
  0.8350034735415575 -0.0013946665382782  0.1646332611715779
  0.3343252854611060 -0.0018186193813841 -0.0017615293891045
  0.5013831639812620  0.1635557246175702 -0.0002410372631864
  0.6687338393072698  0.3308342424283774  0.0000823215773971
  0.8360502315851134  0.4982254037290924 -0.0002352887304857
  0.5013986665950942  0.9997297658299624  0.1635761231301890
  0.6683566457405079  0.1650608684458941  0.1650925677780652
  0.8345670845395619  0.3312221747664512  0.1650783423673215
  0.6687725022385299  0.0000383476730683  0.3308557287302828
  0.8345717131536253  0.1650490729338188  0.3312594630989054
  0.8360720870875830 -0.0002632933117641  0.4982449835779077
  0.0013737105114976 -0.0017980239906560 -0.0017408809240456
  0.1676306078356742  0.1644742746470967 -0.0018145697400060
  0.3338738404720135  0.3309127627621820 -0.0007876712462131
  0.5016352674307937  0.4979933823465243  0.0024139049820968
  0.6687282503529041  0.6657411814255115 -0.0008084976394210
  0.8351183471226444  0.8319699880958685  0.9981596452957567
  0.1676537405133562 -0.0018638332112491  0.1645302415218801
  0.3340668469872757  0.1640174960573421  0.1640599190032346
  0.5013790916626399  0.3308268696665954  0.1649916084953174
  0.6688246639234572  0.4982107442417519  0.1649590927141757
  0.8356336257493936  0.6655603145708947  0.1640343688452035
  0.3338900659638984 -0.0008435956064288  0.3309399362678990
  0.5013919538548888  0.1649487975974610  0.3308449863804321
  0.6679645285780456  0.3316608065615854  0.3316978901767543
  0.8346912906579138  0.4982158556452445  0.3308658940431020
  0.5016395626589218  0.0023961880789274  0.4980430900322373
  0.6688171425532855  0.1649298679560799  0.4982444262604000
  0.8346687539805288  0.3308165672941659  0.4982672067081593
  0.6687219709659311 -0.0008206150224974  0.6657876189412164
  0.8355988968824516  0.1640058244291170  0.6656032574679305
  0.8351177557650927 -0.0018589837932306  0.8320085671449701
  0.0013219968933287  0.3310442643711985 -0.0016827017212496
  0.1673392690247862  0.4979853461602290 -0.0016552575982423
  0.3344422505835459  0.6651570135081947 -0.0009092207535829
  0.5016191532996639  0.8322572266002308 -0.0016610678263514
  0.0010252605088815  0.1646104813635692  0.1646575283109563
  0.1669133163268171  0.3307366614960036  0.1640254861999292
  0.3332352826871583  0.4979843512125061  0.1634532428689214
  0.5016604978823189  0.6663641057957663  0.1634247712474757
  0.6688896931732506  0.8327097632186715  0.1639881075801610
  0.0013405484296654  0.9982727054844905  0.3310775871181333
  0.1669075687308635  0.1639441049823301  0.3308213987095103
  0.3340316032853107  0.3272715908926615  0.3273448975979139
  0.5013411936024459  0.4982955471226429  0.3276301728181777
  0.6723859836612627  0.6655942029207620  0.3273012618878853
  0.8356385551043943  0.8327108716907160  0.3307778800711211
  0.1673574652385230  0.9982719315438682  0.4980705431406859
  0.3332228721160347  0.1633753360406726  0.4980445441375270
  0.5013521210161890  0.3275852620608316  0.4983110249497558
  0.6720481879925545  0.4982894787142375  0.4982960319359341
  0.8362430745774047  0.6663850136223811  0.4980442169359251
  0.3344232900724863 -0.0009706545089625  0.6652609117966515
  0.5016180690811904  0.1633854246584447  0.6664240040382654
  0.6723129063034131  0.3272741298827767  0.6656174230929259
  0.8361999588059524  0.4979855842230562  0.6664362524847145
  0.5016055409450131 -0.0017078448969422  0.8323311377518638
  0.6688581780868078  0.1639611448522857  0.8327403532729635
  0.8355982080860843  0.3307561234337655  0.8327622671831352
  0.0014278155181716  0.6652782193776083 -0.0017517093047162
  0.1677951532909617  0.8317817901672087 -0.0018022484779614
 -0.0001164842902781  0.4982001414657989  0.1635986522812884
  0.1675857223840598  0.6655205396233952  0.1640119135225015
  0.3340946466014029  0.8320275578141745  0.1640028208380538
 -0.0004389115440699  0.3308327598636790  0.3309182907999472
  0.1602011243097712  0.4983882726912329  0.3249711034814012
  0.3344896204289911  0.6651458881553011  0.3297899720768134
  0.5012313049279709  0.8394147665561928  0.3249549369898283
 -0.0001340725166037  0.1635340798705461  0.4982816356057328
  0.1601573448882400  0.3248820846773327  0.4984808152866871
  0.3025923385967775  0.4789826341054638  0.4791525864534322
  0.5206611349154296  0.6970386603028985  0.4791072347904929
  0.6747356398841747  0.8394567401708234  0.4984777606376026
  0.0014150679173728 -0.0018019402800345  0.6653320503293748
  0.1675600768078635  0.1639466798955129  0.6655936871240878
  0.3344744719440184  0.3297155552271387  0.6651780810539427
  0.5205103406492483  0.4790917476228837  0.6969261358167108
  0.6699050528113653  0.6651625505419188  0.6651961691461609
  0.8356687586740983  0.8320716509445266  0.6655869659151912
  0.1677946911337504 -0.0018717800774092  0.8318695492666210
  0.3340784125292307  0.1639556488060515  0.8321036298945592
  0.5012092709371057  0.3249248665296651  0.8394167963959802
  0.6746555204568671  0.4984140163480241  0.8394343302863431
  0.8356626424110820  0.6655363001537776  0.8320755521542885
  0.0014712920892358  0.8319645498131997  0.1645420976263906
  0.0004742549953422  0.6657352445902820  0.3309476269140848
  0.1677731792784003  0.8318393833351283  0.3309728064457064
  0.9972318218559465  0.4980090771566012  0.4980873569569779
  0.1645599777562237  0.6656985005765538  0.4978508836361725
  0.3339436195725368  0.8350885963017620  0.4978439761599188
  0.0004188765466532  0.3308842589890387  0.6658304420461220
  0.1645075587621019  0.4977810703844310  0.6657564953943188
  0.3281521765145666  0.6714425290909993  0.6714843418464391
  0.5018373155034094  0.8350971310314771  0.6657492330326609
  0.0014482525683213  0.1644906595969616  0.8320376415093521
  0.1677713167588732  0.3309011074920667  0.8318892674976721
  0.3339335264958823  0.4977667931226126  0.8351208392190469
  0.5018373352905915  0.6656971027200308  0.8351181393792740
  0.6686996690973033  0.8318513010419344  0.8318791252351212
  0.0013188988904000  0.8322648149008695  0.4980507062421354
  0.0005733795212302  0.6651869979135453  0.6652544856815751
  0.1666396822219520  0.8329683564361343  0.6651535598857634
  0.0012922586042860  0.4979981607340150  0.8323393875457076
  0.1666427622537559  0.6650542099096340  0.8330393252541570
  0.3345076736454081  0.8329731111216101  0.8330355575885232
  0.0014725317023849  0.8317911376308675  0.8318571561352741
  0.4435271829373428  0.5561246399593787  0.5559675262642403
  0.8345624379336792  0.1650364996893413  0.1650634883679461
  0.0010473117214187  0.3315432670149518  0.1648911018864205
  0.0010512852977846  0.1648440586094108  0.3316119510061208
  0.5010955336744957  0.1651980372882935  0.1652253827573303
  0.6676857033238633  0.3319191268711730  0.1658350998269682
  0.8344393754926274  0.4984984860350439  0.1652306478050802
  0.0016589100246063  0.6649972449441267  0.1647567249256492
  0.6676935331643441  0.1658184297698395  0.3319570837749528
  0.8337946485970443  0.3319153692075453  0.3319507033145888
  0.9990502519917516  0.4983326297260964  0.3306735018492180
  0.8344229554752530  0.1651886379285939  0.4985296704412963
 -0.0009757205034829  0.3305952010240796  0.4984398224872231
  0.0016368534922516  0.1646967003418062  0.6650783058184294
  0.1678287800059464  0.1648176235147816  0.1648730678967007
  0.3341463349171926  0.3311699966114836  0.1645394649868047
  0.5009424485161799  0.4986905963045555  0.1656535281271112
  0.6684748973359198  0.6654515681362927  0.1644979387238156
  0.8347947653495402  0.8317916166623288  0.1648464365800451
  0.0014641573658366 -0.0018644504468772  0.1647921191764169
  0.3341596466230189  0.1644667802750959  0.3312194271151867
  0.5003607464828559  0.3326612977275480  0.3327003871553380
  0.6669636706219750  0.4992528327431291  0.3326899996265688
  0.8351720354008504  0.6654423856851478  0.3311954380012324
  0.0017957457816116  0.8315702684877292  0.3315769751127043
  0.5009484113183827  0.1656059423664290  0.4987283023913103
  0.6669445806577146  0.3326547461627619  0.4992813548499927
  0.8339782481122531  0.4986785945526725  0.4987337206415439
  0.0006048657426953  0.6653683414886448  0.4982318323401559
  0.6684404112129372  0.1644820921103775  0.6654897703000723
  0.8351081271801239  0.3311488912506651  0.6655147473752288
  0.0005598829282003  0.4981585701530309  0.6654451062980048
  0.8347672151999578  0.1648271584490386  0.8318455592754984
  0.0017796581368722  0.3315320221375965  0.8316220226326373
  0.0014404111933434  0.1647539616795687 -0.0018219145352332
  0.1667664803713064  0.4982080692211635  0.1636810372068653
  0.3347160086882150  0.6648881206979605  0.1651585129152997
  0.5014033197202904  0.8328214335914862  0.1636781801214317
  0.6680402569156261  0.9985768779432471  0.1648830671652094
  0.1672429884153475  0.3321436634769923  0.3322395699694930
  0.3318016101521856  0.4970728002449322  0.3285528251264950
  0.5025620838351512  0.6678100581538162  0.3285080614200679
  0.6674719209034470  0.8323478449336706  0.3322049979056167
  0.8347483863440958  0.9985732229748059  0.3315810233389802
  0.1667482810791723  0.1636042397440475  0.4982786455956021
  0.3318002519649954  0.3284090695218215  0.4971299114558250
  0.6712194021927951  0.6677964520823059  0.4971084916297818
  0.8359788979979337  0.8328538465527386  0.4982751825831633
  0.0016790807883187 -0.0021027506206622  0.4983032798591072
  0.3346948802607244  0.1650862777038782  0.6649618356588682
  0.5025400815499630  0.3284489451222461  0.6678105667751534
  0.6711242527612438  0.4970688038164934  0.6678055845029328
  0.8345075083337717  0.6649118165877834  0.6649544590812932
  0.0017658510471618  0.8312896403840899  0.6648078070993317
  0.5013831948135585  0.1636437941730061  0.8328695952757591
  0.6674124761470740  0.3321624846617779  0.8323855495158674
  0.8359172281549559  0.4982273538685628  0.8328854755543976
  0.0017654625260525  0.6647347493055227  0.8313488405350794
  0.6680264483217661  0.1648530069557383 -0.0013888993498408
  0.8347261355287054  0.3315658351798442  0.9986127135781830
  0.0016639435945904  0.4982305413023546  0.9979660393379481
  0.1683296471656536  0.8312542098116489  0.1649621892145019
  0.3346098335481161 -0.0020506390470032  0.1647553676705169
  0.1685029958520596  0.6640074353734265  0.3324647717246669
  0.3356259290566224  0.8311222980973400  0.3324665585418858
  0.5012838218573871  0.0005742538744673  0.3306453120165778
  0.1572643040343729  0.4974465164094741  0.4975464166818402
  0.3408015384155564  0.6588465596171500  0.4987483600470096
  0.5022121114101681  0.8423853127006710  0.4974923181176759
  0.6690191512089669  0.0005845163860313  0.4983780243459534
  0.1684883409164702  0.3324097634198748  0.6640739013944064
  0.3408833936998163  0.4987149634922767  0.6587383861669300
  0.5008815982293905  0.6587956796470525  0.6587419283308529
  0.6672210381164013  0.8311316970990021  0.6640803469316983
  0.8348895545156556 -0.0020277479708555  0.6650406175071644
  0.1683146400313316  0.1648923086640332  0.8313270441249954
  0.3356073275691836  0.3324066817343349  0.8311340193249561
  0.5021753795027382  0.4974425067797149  0.8423316864642749
  0.6671992299076379  0.6640322726294350  0.8311544130014432
  0.8346991915022502  0.8312803254792407  0.8313158838067772
  0.0016286615549494 -0.0020681284410099  0.8315013656914265
  0.3346003311820417  0.1647154722317398 -0.0020029434850030
  0.5012549350391720  0.3306305235579400  0.0006009493740886
  0.6689877242333170  0.4983356756060695  0.0005965095858458
  0.8348972700184083  0.6649969416928994  0.9979875496437749
  0.0016444061491041  0.8314252953996737 -0.0019949721540486
  0.1680680586114704  0.9977870669174840  0.3315669667398113
  0.1693954281743049  0.8302133075913130  0.4983343942635096
  0.3342582881869038 -0.0009924793907618  0.4982306058010428
  0.1681675285447870  0.6640131347535555  0.6641135837306137
  0.3355810398045385  0.8314490075448357  0.6640915782796032
  0.5014362741884839 -0.0009716739874045  0.6654129216956263
  0.1694003562231708  0.4982615535734248  0.8302540025208442
  0.3355846396996464  0.6640139404925050  0.8314830760361480
  0.5013257867819576  0.8302102532367258  0.8302587623038431
  0.6680813507382526 -0.0021936822860003  0.8316002513130445
  0.1680552897016918  0.3315143457149126 -0.0021723962262284
  0.3342472925662442  0.4981442879242785 -0.0009380361508456
  0.5014620460981358  0.6653461744906393 -0.0009440117687635
  0.6680860729203696  0.8315563624548790  0.9978334440873277
  0.8348108757359235 -0.0018630723970848 -0.0018276865497412
  0.1683046901698435 -0.0021786643262316  0.6648256382088903
  0.1687011448494293  0.8308793178870720  0.8309624528165424
  0.3348363790899185 -0.0021660903090439  0.8313503009990636
  0.1683101150802786  0.6647221173750850 -0.0021096154661298
  0.3348438171873444  0.8312720989120761  0.9978895565268194
  0.5013535656963867  0.9979186742282296 -0.0020401537483583
  0.1681409144882054 -0.0020624876803991 -0.0020007957847135
 
  0.00000000E+00  0.00000000E+00  0.00000000E+00
  0.00000000E+00  0.00000000E+00  0.00000000E+00
  0.00000000E+00  0.00000000E+00  0.00000000E+00
  0.00000000E+00  0.00000000E+00  0.00000000E+00
  0.00000000E+00  0.00000000E+00  0.00000000E+00
  0.00000000E+00  0.00000000E+00  0.00000000E+00
  0.00000000E+00  0.00000000E+00  0.00000000E+00
  0.00000000E+00  0.00000000E+00  0.00000000E+00
  0.00000000E+00  0.00000000E+00  0.00000000E+00
  0.00000000E+00  0.00000000E+00  0.00000000E+00
  0.00000000E+00  0.00000000E+00  0.00000000E+00
  0.00000000E+00  0.00000000E+00  0.00000000E+00
  0.00000000E+00  0.00000000E+00  0.00000000E+00
  0.00000000E+00  0.00000000E+00  0.00000000E+00
  0.00000000E+00  0.00000000E+00  0.00000000E+00
  0.00000000E+00  0.00000000E+00  0.00000000E+00
  0.00000000E+00  0.00000000E+00  0.00000000E+00
  0.00000000E+00  0.00000000E+00  0.00000000E+00
  0.00000000E+00  0.00000000E+00  0.00000000E+00
  0.00000000E+00  0.00000000E+00  0.00000000E+00
  0.00000000E+00  0.00000000E+00  0.00000000E+00
  0.00000000E+00  0.00000000E+00  0.00000000E+00
  0.00000000E+00  0.00000000E+00  0.00000000E+00
  0.00000000E+00  0.00000000E+00  0.00000000E+00
  0.00000000E+00  0.00000000E+00  0.00000000E+00
  0.00000000E+00  0.00000000E+00  0.00000000E+00
  0.00000000E+00  0.00000000E+00  0.00000000E+00
  0.00000000E+00  0.00000000E+00  0.00000000E+00
  0.00000000E+00  0.00000000E+00  0.00000000E+00
  0.00000000E+00  0.00000000E+00  0.00000000E+00
  0.00000000E+00  0.00000000E+00  0.00000000E+00
  0.00000000E+00  0.00000000E+00  0.00000000E+00
  0.00000000E+00  0.00000000E+00  0.00000000E+00
  0.00000000E+00  0.00000000E+00  0.00000000E+00
  0.00000000E+00  0.00000000E+00  0.00000000E+00
  0.00000000E+00  0.00000000E+00  0.00000000E+00
  0.00000000E+00  0.00000000E+00  0.00000000E+00
  0.00000000E+00  0.00000000E+00  0.00000000E+00
  0.00000000E+00  0.00000000E+00  0.00000000E+00
  0.00000000E+00  0.00000000E+00  0.00000000E+00
  0.00000000E+00  0.00000000E+00  0.00000000E+00
  0.00000000E+00  0.00000000E+00  0.00000000E+00
  0.00000000E+00  0.00000000E+00  0.00000000E+00
  0.00000000E+00  0.00000000E+00  0.00000000E+00
  0.00000000E+00  0.00000000E+00  0.00000000E+00
  0.00000000E+00  0.00000000E+00  0.00000000E+00
  0.00000000E+00  0.00000000E+00  0.00000000E+00
  0.00000000E+00  0.00000000E+00  0.00000000E+00
  0.00000000E+00  0.00000000E+00  0.00000000E+00
  0.00000000E+00  0.00000000E+00  0.00000000E+00
  0.00000000E+00  0.00000000E+00  0.00000000E+00
  0.00000000E+00  0.00000000E+00  0.00000000E+00
  0.00000000E+00  0.00000000E+00  0.00000000E+00
  0.00000000E+00  0.00000000E+00  0.00000000E+00
  0.00000000E+00  0.00000000E+00  0.00000000E+00
  0.00000000E+00  0.00000000E+00  0.00000000E+00
  0.00000000E+00  0.00000000E+00  0.00000000E+00
  0.00000000E+00  0.00000000E+00  0.00000000E+00
  0.00000000E+00  0.00000000E+00  0.00000000E+00
  0.00000000E+00  0.00000000E+00  0.00000000E+00
  0.00000000E+00  0.00000000E+00  0.00000000E+00
  0.00000000E+00  0.00000000E+00  0.00000000E+00
  0.00000000E+00  0.00000000E+00  0.00000000E+00
  0.00000000E+00  0.00000000E+00  0.00000000E+00
  0.00000000E+00  0.00000000E+00  0.00000000E+00
  0.00000000E+00  0.00000000E+00  0.00000000E+00
  0.00000000E+00  0.00000000E+00  0.00000000E+00
  0.00000000E+00  0.00000000E+00  0.00000000E+00
  0.00000000E+00  0.00000000E+00  0.00000000E+00
  0.00000000E+00  0.00000000E+00  0.00000000E+00
  0.00000000E+00  0.00000000E+00  0.00000000E+00
  0.00000000E+00  0.00000000E+00  0.00000000E+00
  0.00000000E+00  0.00000000E+00  0.00000000E+00
  0.00000000E+00  0.00000000E+00  0.00000000E+00
  0.00000000E+00  0.00000000E+00  0.00000000E+00
  0.00000000E+00  0.00000000E+00  0.00000000E+00
  0.00000000E+00  0.00000000E+00  0.00000000E+00
  0.00000000E+00  0.00000000E+00  0.00000000E+00
  0.00000000E+00  0.00000000E+00  0.00000000E+00
  0.00000000E+00  0.00000000E+00  0.00000000E+00
  0.00000000E+00  0.00000000E+00  0.00000000E+00
  0.00000000E+00  0.00000000E+00  0.00000000E+00
  0.00000000E+00  0.00000000E+00  0.00000000E+00
  0.00000000E+00  0.00000000E+00  0.00000000E+00
  0.00000000E+00  0.00000000E+00  0.00000000E+00
  0.00000000E+00  0.00000000E+00  0.00000000E+00
  0.00000000E+00  0.00000000E+00  0.00000000E+00
  0.00000000E+00  0.00000000E+00  0.00000000E+00
  0.00000000E+00  0.00000000E+00  0.00000000E+00
  0.00000000E+00  0.00000000E+00  0.00000000E+00
  0.00000000E+00  0.00000000E+00  0.00000000E+00
  0.00000000E+00  0.00000000E+00  0.00000000E+00
  0.00000000E+00  0.00000000E+00  0.00000000E+00
  0.00000000E+00  0.00000000E+00  0.00000000E+00
  0.00000000E+00  0.00000000E+00  0.00000000E+00
  0.00000000E+00  0.00000000E+00  0.00000000E+00
  0.00000000E+00  0.00000000E+00  0.00000000E+00
  0.00000000E+00  0.00000000E+00  0.00000000E+00
  0.00000000E+00  0.00000000E+00  0.00000000E+00
  0.00000000E+00  0.00000000E+00  0.00000000E+00
  0.00000000E+00  0.00000000E+00  0.00000000E+00
  0.00000000E+00  0.00000000E+00  0.00000000E+00
  0.00000000E+00  0.00000000E+00  0.00000000E+00
  0.00000000E+00  0.00000000E+00  0.00000000E+00
  0.00000000E+00  0.00000000E+00  0.00000000E+00
  0.00000000E+00  0.00000000E+00  0.00000000E+00
  0.00000000E+00  0.00000000E+00  0.00000000E+00
  0.00000000E+00  0.00000000E+00  0.00000000E+00
  0.00000000E+00  0.00000000E+00  0.00000000E+00
  0.00000000E+00  0.00000000E+00  0.00000000E+00
  0.00000000E+00  0.00000000E+00  0.00000000E+00
  0.00000000E+00  0.00000000E+00  0.00000000E+00
  0.00000000E+00  0.00000000E+00  0.00000000E+00
  0.00000000E+00  0.00000000E+00  0.00000000E+00
  0.00000000E+00  0.00000000E+00  0.00000000E+00
  0.00000000E+00  0.00000000E+00  0.00000000E+00
  0.00000000E+00  0.00000000E+00  0.00000000E+00
  0.00000000E+00  0.00000000E+00  0.00000000E+00
  0.00000000E+00  0.00000000E+00  0.00000000E+00
  0.00000000E+00  0.00000000E+00  0.00000000E+00
  0.00000000E+00  0.00000000E+00  0.00000000E+00
  0.00000000E+00  0.00000000E+00  0.00000000E+00
  0.00000000E+00  0.00000000E+00  0.00000000E+00
  0.00000000E+00  0.00000000E+00  0.00000000E+00
  0.00000000E+00  0.00000000E+00  0.00000000E+00
  0.00000000E+00  0.00000000E+00  0.00000000E+00
  0.00000000E+00  0.00000000E+00  0.00000000E+00
  0.00000000E+00  0.00000000E+00  0.00000000E+00
  0.00000000E+00  0.00000000E+00  0.00000000E+00
  0.00000000E+00  0.00000000E+00  0.00000000E+00
  0.00000000E+00  0.00000000E+00  0.00000000E+00
  0.00000000E+00  0.00000000E+00  0.00000000E+00
  0.00000000E+00  0.00000000E+00  0.00000000E+00
  0.00000000E+00  0.00000000E+00  0.00000000E+00
  0.00000000E+00  0.00000000E+00  0.00000000E+00
  0.00000000E+00  0.00000000E+00  0.00000000E+00
  0.00000000E+00  0.00000000E+00  0.00000000E+00
  0.00000000E+00  0.00000000E+00  0.00000000E+00
  0.00000000E+00  0.00000000E+00  0.00000000E+00
  0.00000000E+00  0.00000000E+00  0.00000000E+00
  0.00000000E+00  0.00000000E+00  0.00000000E+00
  0.00000000E+00  0.00000000E+00  0.00000000E+00
  0.00000000E+00  0.00000000E+00  0.00000000E+00
  0.00000000E+00  0.00000000E+00  0.00000000E+00
  0.00000000E+00  0.00000000E+00  0.00000000E+00
  0.00000000E+00  0.00000000E+00  0.00000000E+00
  0.00000000E+00  0.00000000E+00  0.00000000E+00
  0.00000000E+00  0.00000000E+00  0.00000000E+00
  0.00000000E+00  0.00000000E+00  0.00000000E+00
  0.00000000E+00  0.00000000E+00  0.00000000E+00
  0.00000000E+00  0.00000000E+00  0.00000000E+00
  0.00000000E+00  0.00000000E+00  0.00000000E+00
  0.00000000E+00  0.00000000E+00  0.00000000E+00
  0.00000000E+00  0.00000000E+00  0.00000000E+00
  0.00000000E+00  0.00000000E+00  0.00000000E+00
  0.00000000E+00  0.00000000E+00  0.00000000E+00
  0.00000000E+00  0.00000000E+00  0.00000000E+00
  0.00000000E+00  0.00000000E+00  0.00000000E+00
  0.00000000E+00  0.00000000E+00  0.00000000E+00
  0.00000000E+00  0.00000000E+00  0.00000000E+00
  0.00000000E+00  0.00000000E+00  0.00000000E+00
  0.00000000E+00  0.00000000E+00  0.00000000E+00
  0.00000000E+00  0.00000000E+00  0.00000000E+00
  0.00000000E+00  0.00000000E+00  0.00000000E+00
  0.00000000E+00  0.00000000E+00  0.00000000E+00
  0.00000000E+00  0.00000000E+00  0.00000000E+00
  0.00000000E+00  0.00000000E+00  0.00000000E+00
  0.00000000E+00  0.00000000E+00  0.00000000E+00
  0.00000000E+00  0.00000000E+00  0.00000000E+00
  0.00000000E+00  0.00000000E+00  0.00000000E+00
  0.00000000E+00  0.00000000E+00  0.00000000E+00
  0.00000000E+00  0.00000000E+00  0.00000000E+00
  0.00000000E+00  0.00000000E+00  0.00000000E+00
  0.00000000E+00  0.00000000E+00  0.00000000E+00
  0.00000000E+00  0.00000000E+00  0.00000000E+00
  0.00000000E+00  0.00000000E+00  0.00000000E+00
  0.00000000E+00  0.00000000E+00  0.00000000E+00
  0.00000000E+00  0.00000000E+00  0.00000000E+00
  0.00000000E+00  0.00000000E+00  0.00000000E+00
  0.00000000E+00  0.00000000E+00  0.00000000E+00
  0.00000000E+00  0.00000000E+00  0.00000000E+00
  0.00000000E+00  0.00000000E+00  0.00000000E+00
  0.00000000E+00  0.00000000E+00  0.00000000E+00
  0.00000000E+00  0.00000000E+00  0.00000000E+00
  0.00000000E+00  0.00000000E+00  0.00000000E+00
  0.00000000E+00  0.00000000E+00  0.00000000E+00
  0.00000000E+00  0.00000000E+00  0.00000000E+00
  0.00000000E+00  0.00000000E+00  0.00000000E+00
  0.00000000E+00  0.00000000E+00  0.00000000E+00
  0.00000000E+00  0.00000000E+00  0.00000000E+00
  0.00000000E+00  0.00000000E+00  0.00000000E+00
  0.00000000E+00  0.00000000E+00  0.00000000E+00
  0.00000000E+00  0.00000000E+00  0.00000000E+00
  0.00000000E+00  0.00000000E+00  0.00000000E+00
  0.00000000E+00  0.00000000E+00  0.00000000E+00
  0.00000000E+00  0.00000000E+00  0.00000000E+00
  0.00000000E+00  0.00000000E+00  0.00000000E+00
  0.00000000E+00  0.00000000E+00  0.00000000E+00
  0.00000000E+00  0.00000000E+00  0.00000000E+00
  0.00000000E+00  0.00000000E+00  0.00000000E+00
  0.00000000E+00  0.00000000E+00  0.00000000E+00
  0.00000000E+00  0.00000000E+00  0.00000000E+00
  0.00000000E+00  0.00000000E+00  0.00000000E+00
  0.00000000E+00  0.00000000E+00  0.00000000E+00
  0.00000000E+00  0.00000000E+00  0.00000000E+00
  0.00000000E+00  0.00000000E+00  0.00000000E+00
  0.00000000E+00  0.00000000E+00  0.00000000E+00
  0.00000000E+00  0.00000000E+00  0.00000000E+00
  0.00000000E+00  0.00000000E+00  0.00000000E+00
  0.00000000E+00  0.00000000E+00  0.00000000E+00
  0.00000000E+00  0.00000000E+00  0.00000000E+00
  0.00000000E+00  0.00000000E+00  0.00000000E+00
  0.00000000E+00  0.00000000E+00  0.00000000E+00
  0.00000000E+00  0.00000000E+00  0.00000000E+00
  0.00000000E+00  0.00000000E+00  0.00000000E+00
  0.00000000E+00  0.00000000E+00  0.00000000E+00
