40.0% N(Distort)=2 ~[0.5,0.5,0.5]
1.0
  12.5998379999999983    0.0000000000000004    0.0000000000000004
   0.0000000000000004   12.5998379999999983   -0.0000000000000004
  -0.0000000000000004   -0.0000000000000004   12.5998379999999983
Mg O
109 107
direct
   0.6719359826099596    0.0164400566803896   -0.0025562813959436 Mg
   0.8333333333333333    0.1666666666666667    1.0000000000000000 Mg
   0.8356993213461827    1.0223522002184962    0.1641323011046227 Mg
   0.3224763702131981    0.0044599364366762   -0.0124259056236310 Mg
   0.5248438668437096    0.1340167727506748    0.0208845527956899 Mg
   0.6714935292382217    0.3457211772833228   -0.0209526067947342 Mg
   0.8290737230186719    0.5128489518682409    0.9753351773185092 Mg
   0.4916111432182905   -0.0188535355206976    0.1598155402881129 Mg
   0.6678441349996687    0.1610208860998654    0.1570750534364992 Mg
   0.8398290960954995    0.3139069218633367    0.1559451496808327 Mg
   0.6529922647312478   -0.0208375328663862    0.3414634871060681 Mg
   0.8383686394545844    0.1813625688851739    0.3710873707308170 Mg
   0.8362978935485089    1.0085628074114872    0.5044069720316411 Mg
   0.0173919777699045    0.0222577906257076   -0.0005867305602654 Mg
   0.1705697523596155    0.1762375686193444    0.0060307451974887 Mg
   0.3149992201003704    0.3283205046943055    0.0052963514160773 Mg
   0.5192440378040423    0.5023885639771803    0.0190265329539666 Mg
   0.6815969052534545    0.6444330890148853    0.0223574694034057 Mg
   0.8124203212835713    0.8340860815280817   -0.0054763896592791 Mg
   0.1665948356065242   -0.0025943378627055    0.1712022565565468 Mg
   0.3348490213139146    0.1543934650123658    0.1696880957378841 Mg
   0.5047467105054612    0.3437881971643446    0.1565623595462839 Mg
   0.6614306538404788    0.4883532156747027    0.1997717352993726 Mg
   0.7990557434725372    0.6767637905211288    0.1429797285055529 Mg
   0.3505846060379298    0.0045533198337806    0.3416230520548743 Mg
   0.5189310627892397    0.1667855931470951    0.3404044248299011 Mg
   0.6471772161328790    0.3398910932068241    0.3385774200306390 Mg
   0.8214392670707608    0.5033086611691482    0.3399335706513458 Mg
   0.5087175674737821    0.0036022138708196    0.5084364412091331 Mg
   0.6824756732776708    0.1746301591688892    0.5093715768114985 Mg
   0.8307306738106639    0.3376536170938208    0.4983442110786177 Mg
   0.6341635709064254    0.0152265635632905    0.6820381101216730 Mg
   0.8702445561015518    0.1667423729817158    0.6417182127253579 Mg
   0.8414429628833022    0.0020475909213646    0.8267815954021939 Mg
   0.0077911761063580    0.3340042734030238    1.0082010710985725 Mg
   0.1560703714432414    0.4720579160684921    0.0227889049130636 Mg
   0.3594235765852130    0.6669446475079841    1.0085518092966930 Mg
   0.4921513793632283    0.8393338422487233    0.0014845467117730 Mg
   0.0040849426661529    0.1839426764557721    0.1851551064566199 Mg
   0.1718761730772104    0.3265970547747437    0.1716575565494780 Mg
   0.3266659064603057    0.4986479525096391    0.1809222622183328 Mg
   0.4823350486051717    0.6716354168229823    0.1377437661434048 Mg
   0.6639741349870326    0.8303552161329294    0.1490883337251225 Mg
   1.0180398301179416    0.9973111001781670    0.3393016524598224 Mg
   0.1770586031541706    0.1859398535776294    0.3217675851988977 Mg
   0.3300248483057041    0.3537525485070541    0.3308432001478190 Mg
   0.4993092781621052    0.4923263200008698    0.3292659753739309 Mg
   0.6571827071018262    0.6830894602624320    0.3428803774141652 Mg
   0.8413472294617516    0.8048907614652547    0.3509072435853736 Mg
   0.1933253489979692   -0.0043934640115622    0.5091911859369235 Mg
   0.3252408646117803    0.1943666058757872    0.5041334609808326 Mg
   0.5008951249479888    0.3480733737107004    0.5080036990354322 Mg
   0.6569324815182362    0.5043134572442307    0.5033394328892956 Mg
   0.8340406353444100    0.6467888657744719    0.4899186733208621 Mg
   0.3297956424356056    1.0194006828891253    0.6366071927941050 Mg
   0.5015551237325958    0.1769641662077084    0.6674287931622278 Mg
   0.6757692057653371    0.3346777786593365    0.6649717184138575 Mg
   0.8499528442126087    0.5035336966610896    0.6626612307206120 Mg
   0.5103882350826440    0.0004916304976339    0.8086669500933090 Mg
   0.6913391775986911    0.1523220077975649    0.8249002292510109 Mg
   0.8209475064285787    0.3198043219008854    0.8370888797924597 Mg
   0.0041459754829497    0.6677219914094606    1.0017291181223364 Mg
   0.1608188472386943    0.8304378191263420    0.0180057734982159 Mg
  -0.0089439266814768    0.5086269161348704    0.1716708958309844 Mg
   0.1689926048885174    0.6432412087605105    0.1773916867464423 Mg
   0.3187884512830937    0.8334239203885810    0.1627113738382361 Mg
   0.0281162246923243    0.3630967398985710    0.3398590637450229 Mg
   0.1803595085240238    0.4856256423277813    0.3201942721745532 Mg
   0.3541205148799467    0.6713982070034628    0.3392444934941777 Mg
   0.4950613038571965    0.8334301322838186    0.3353725799194855 Mg
   0.0015558776650069    0.1578533809040061    0.4895948019103925 Mg
   0.1734729516159673    0.3532081082471356    0.4729621394018638 Mg
   0.3264422053035390    0.4918464629963021    0.4986005927853397 Mg
   0.5051151106442927    0.6669595940588045    0.5030461116338344 Mg
   0.6654319567835302    0.8190493272457957    0.4813783591643903 Mg
   1.0256075350791196    1.0076309132346994    0.6580641316213642 Mg
   0.1555436831577452    0.1576055221182177    0.6464778702288797 Mg
   0.3282816222449326    0.3427187804329703    0.6888107293622704 Mg
   0.4867628122902632    0.5084598211272111    0.6782924145859217 Mg
   0.6616185874855282    0.6639429204719020    0.6736420627265832 Mg
   0.8198239576581793    0.8455671235098990    0.6864446109075591 Mg
   0.1356431373845665   -0.0001039986879625    0.8307322548108454 Mg
   0.3263028263942707    0.1560577287241344    0.8536932827546374 Mg
   0.4903758329735597    0.3129845039781415    0.8280079322588033 Mg
   0.6776176637149647    0.4851142516067272    0.8248087186134754 Mg
   0.8432728092347195    0.6402586934292830    0.8358350813991211 Mg
   1.0009024280140746    0.8349771689058364    0.1590362894858969 Mg
   0.0178012309738179    0.6344717563646993    0.3438563334890067 Mg
   0.1644399219177941    0.8525080791900903    0.3226022395831011 Mg
  -0.0020585796334341    0.5251435569989580    0.5091173069167199 Mg
   0.1615593847536994    0.6594574412890513    0.4773833547276061 Mg
   0.3389424986160177    0.8047862153533337    0.5102844594454029 Mg
   0.9900613166464098    0.3407258175615897    0.6697361084797034 Mg
   0.1616481321335118    0.4787771986881725    0.6554880401146053 Mg
   0.3170257970022567    0.6501087269594205    0.6800196383140878 Mg
   0.5075817181964575    0.8093765000678906    0.6481039482801095 Mg
  -0.0032727825963562    0.1469427852935284    0.8606717176970117 Mg
   0.1675543351587450    0.3253608134652977    0.8130931789089888 Mg
   0.3246287978686815    0.5221518274728943    0.8121360737507709 Mg
   0.4955595687316237    0.6541088987951146    0.8237008572643393 Mg
   0.6592348821771193    0.8496609247942011    0.8139942423836424 Mg
   1.0001680443897656    0.8267335376012196    0.5070803488362724 Mg
  -0.0069321894330366    0.6525620930668798    0.6671375538717337 Mg
   0.1591921916652108    0.8189425248342216    0.6462017668923741 Mg
  -0.0018194110719525    0.4671644506865091    0.8165089825925859 Mg
   0.1798453558495267    0.6781404023816917    0.8302585255634245 Mg
   0.3489892432361608    0.8360749747756154    0.8089309494767332 Mg
   0.0158994438042966    0.8472472687500455    0.8544692016854393 Mg
   0.4709653913846038    0.4989521375632975    0.5182321937541479 Mg
   0.8333333333333333    0.1666666666666667    0.2333363333719053 O
   0.0074048436028965    0.3332514754369713    0.1397840420675614 O
   0.0112840938633576    0.1505884902809572    0.3440665450754511 O
   0.5050368333401504    0.1348507320572948    0.1664074941370602 O
   0.6508839635279857    0.3331799161428984    0.1397316964440860 O
   0.8345322449204163    0.5084840981339181    0.1544015667992156 O
   0.0019661586463446    0.6824126974804555    0.1400813578612816 O
   0.6797815850691455    0.1740372362238313    0.3518920027746428 O
   0.8119257340337916    0.3175180327108522    0.3202509088230029 O
  -0.0091124813050940    0.4883788688162409    0.3099328540260696 O
   0.8304727673259809    0.1473095659284904    0.5033587515179333 O
  -0.0099775276755428    0.3353003939171977    0.4879766010189337 O
   0.0060707546775302    0.1881582745797758    0.6751429619655236 O
   0.1554327720426057    0.1656993109308649    0.1438996056403420 O
   0.3632604816450182    0.3257945023497467    0.1506670141987099 O
   0.5021864363703271    0.4989385852780692    0.1578625553462908 O
   0.6657574569041180    0.6492217360793190    0.1550262159360948 O
   0.8092117367991173    0.8205998278376322    0.1565472030636591 O
  -0.0117427100657200   -0.0005489840516158    0.1632637902974471 O
   0.3440381215617653    0.1465270473387084    0.3397903008455324 O
   0.5073633181670720    0.3409491745848857    0.3327681511795590 O
   0.6713517571302924    0.4893803112072929    0.3399442750592089 O
   0.7998718222528722    0.6694249903132150    0.3179813214193386 O
  -0.0075132022003554    0.8366828762029410    0.3275767091638752 O
   0.5118318352208108    0.1763953803415214    0.5002507732845826 O
   0.6983144969825529    0.3229685886973288    0.5257798872070661 O
   0.8015973595570314    0.4814854899167566    0.4749114731260620 O
   0.0367172066818838    0.6554451892340283    0.4808505987511816 O
   0.6659704620223065    0.1693944138377575    0.6456249412100165 O
   0.8463041611838824    0.3445660726657736    0.6641888262279458 O
  -0.0018079231811383    0.4901422044610419    0.6474254035018705 O
   0.8333333333333333    0.1666666666666667    0.7666636666280948 O
   0.0197866911448603    0.3303102827507410    0.8399772870475389 O
   0.0029740293090836    0.1607036030131882   -0.0050171436407439 O
   0.1815015051909325    0.5046990135491279    0.1669786940635455 O
   0.3238128001561899    0.6924350619381107    0.1922871653181922 O
   0.4982317900651701    0.8338967956344835    0.1704111482462017 O
   0.6291110769603223   -0.0054427636976544    0.1891798687861657 O
   0.1953857832365058    0.3411679322040274    0.3244667725427970 O
   0.3311157043405892    0.5024248212228952    0.3355402066721069 O
   0.5101930998707018    0.6532431687435362    0.3533236510214811 O
   0.6699644138993055    0.8358537559633024    0.3304916074176485 O
   0.8261541289724795   -0.0203026725351390    0.3230586153853253 O
   0.1552988079760114    0.1541326376843413    0.4813507856368550 O
   0.3189360227528671    0.3447861200974893    0.4980021063512322 O
   0.6837794848612414    0.6659064165613290    0.5025017695037322 O
   0.8183288590906124    0.8375981206075153    0.4997021344673548 O
   0.0029239439111295    0.0087075968371467    0.5004945758745535 O
   0.3307979114042243    0.1484637324861258    0.6663491052788370 O
   0.4994025742635895    0.3321650292116494    0.6847663448296828 O
   0.6717725080336225    0.5059532135296017    0.6535819513969495 O
   0.8490432150981939    0.6382468632930003    0.6278246056359484 O
  -0.0180997193278014    0.8168160427374871    0.6903231233799761 O
   0.5119031600767919    0.1487467521980375    0.8501035270605465 O
   0.6815719267179008    0.3109718546678668    0.8325400162780507 O
   0.8441916485174121    0.4755707524068726    0.8461811257956869 O
   0.0371073930602090    0.6790867087074401    0.8321745024466932 O
   0.6730129443946590    0.1767300344363374   -0.0382089982075252 O
   0.8297006119986808    0.3287054055038696   -0.0244106576536283 O
   0.0162052159931311    0.4864933978899402   -0.0158416947065773 O
   0.1826963164795385    0.8192385982080918    0.1554320732853327 O
   0.3232238638812971    0.0012856128518706    0.1760575858641980 O
   0.1555366735815806    0.6689764364116114    0.3400429588966472 O
   0.3458819099960945    0.8292485991450524    0.3207013869022296 O
   0.5006719870459042    0.0140788599476212    0.3397712662051141 O
   0.1889776560558464    0.5246732845794266    0.4757118958271764 O
   0.3325769719869554    0.6645905604296769    0.5259734003259670 O
   0.5068677890419370    0.8155216339833788    0.4756570269878682 O
   0.6667311499903956    0.0344311967075659    0.4856983076060177 O
   0.1461324493290000    0.3330834357699599    0.6753033072116985 O
   0.3218773503972986    0.4880019268859820    0.6529488911407568 O
   0.5006423494393620    0.6528608428505449    0.6707440075004359 O
   0.6672719669347863    0.8257084893817876    0.6702981810105724 O
   0.8489254106422561    0.0191563510462883    0.6956393034968739 O
   0.1580634818690167    0.1757812101431807    0.8566618151955377 O
   0.3320211372978160    0.3086979484100313    0.8307407581319278 O
   0.5339771029114908    0.5006093078164835    0.8333598086805467 O
   0.6453159365088172    0.6853083835287032    0.8355568711942132 O
   0.8348184342124779    0.8307348466223325    0.8326747646855422 O
  -0.0136578730814636    0.0030452692898370    0.8399962810768772 O
   0.3601320148281909    0.1766953185460298    0.0321640512731959 O
   0.4873246725783297    0.3051596331439815    0.0127509213859380 O
   0.6564627863028469    0.4790889268109736    0.0075581810076834 O
   0.8210756911846144    0.6666991569772971   -0.0076645717838554 O
   0.0150577891570554    0.8291624233792234    0.0090631473783922 O
   0.1965591825396374   -0.0074942636965829    0.3497542516521333 O
   0.1519280164143119    0.8058445855159236    0.4771765531239162 O
   0.3460907092736963   -0.0044167321135465    0.5047322809011341 O
   0.1848293498171601    0.6750934127559293    0.6468374670588417 O
   0.3387367952497452    0.8447713902039277    0.6460403796156282 O
   0.4797042390211641    0.0017055027377517    0.6833900862390407 O
   0.1542879793041092    0.4846436909709515    0.8358624860219508 O
   0.3640358183958194    0.6711134857199615    0.8560108394788825 O
   0.4969486338914869    0.8299489375449298    0.7884155284092852 O
   0.6958733604685310   -0.0238416056549931    0.8404224174772218 O
   0.1681318326229488    0.3320819773526891    0.0009061002682776 O
   0.3285598126103870    0.5149267586481073    0.0000855241378630 O
   0.4944237975824201    0.6732407044801489   -0.0181496118904916 O
   0.6573005513450113    0.8275524402107252   -0.0179957828821085 O
   0.8355926760943353    0.0144375939776688    0.0033708211079851 O
   0.1629904940202576    0.0207585681753509    0.6742803108146962 O
   0.1454337836049872    0.8376390528362702    0.8171766848464862 O
   0.3488583029373826    0.0144881431058727    0.8278369406138600 O
   0.1471027747981350    0.6561912465989084    0.0010957137066884 O
   0.3372066597279164    0.8468594926279217   -0.0048797264203032 O
   0.5013213912153278   -0.0100064665596655   -0.0096198495397107 O
   0.1683351063327614    0.0154689668529920   -0.0122426758129667 O
