Mg109 O107
1.0
  12.5998379999999983    0.0000000000000004    0.0000000000000004
   0.0000000000000004   12.5998379999999983   -0.0000000000000004
  -0.0000000000000004   -0.0000000000000004   12.5998379999999983
Mg O
109 107
direct
   0.6693711687918731    0.0009127216694202   -0.0011010001285203 Mg
   0.8355451755385159    0.1673149225988221   -0.0011053926803994 Mg
   0.8355429525027841    0.0009553344374593    0.1651904064308995 Mg
   0.3335305615039255    0.0009050796652996   -0.0011230898293884 Mg
   0.5014300958373196    0.1645071902082613    0.0020063211237004 Mg
   0.6694591891088507    0.3332557594901943    0.0014303830913810 Mg
   0.8360258792196918    0.5008801902055108   -0.0001581786206638 Mg
   0.5014300247497820    0.0039436787217595    0.1625620875556602 Mg
   0.6694364846065469    0.1674583261553943    0.1654257659163373 Mg
   0.8356225917670473    0.3336789232078020    0.1654100943354623 Mg
   0.6694421242647860    0.0034190798068579    0.3311936583587102 Mg
   0.8356103798223071    0.1674677830558846    0.3315515186878324 Mg
   0.8360290576821635    0.0019055084785396    0.4987546465877012 Mg
   0.0014839010002929    0.0008955468685307   -0.0012063367060913 Mg
   0.1673736568315680    0.1672815130466543   -0.0011274809862357 Mg
   0.3334126158732130    0.3332299792937602    0.0013989578642570 Mg
   0.5014227993599661    0.5002351568360774    0.0044070908720756 Mg
   0.6693949064438176    0.6686503565820058   -0.0003248240237168 Mg
   0.8356167549080311    0.8344741408259431   -0.0014078972899084 Mg
   0.1673844921664714    0.0009304366079389    0.1651760240145577 Mg
   0.3334260145716781    0.1674383275968498    0.1654112345703845 Mg
   0.5014309207415568    0.3321590728771500    0.1647486511990583 Mg
   0.6702583847898160    0.5003434909468037    0.1634844029864227 Mg
   0.8355910282065945    0.6680260482772367    0.1644261295344908 Mg
   0.3333942575192243    0.0034108920973869    0.3312158449650418 Mg
   0.5014163720588599    0.1667013680042881    0.3301684696486089 Mg
   0.6686743315669423    0.3328428867073820    0.3308516148424206 Mg
   0.8376960992804079    0.5004786258529584    0.3297044707127648 Mg
   0.5014480317940273    0.0063850613681936    0.4981924948455792 Mg
   0.6702923362302656    0.1654764610794192    0.4983049826524752 Mg
   0.8376902721325061    0.3317140448338254    0.4984543838902603 Mg
   0.6694611160324219    0.0017022351720483    0.6666226733591657 Mg
   0.8356204061181689    0.1664701122879009    0.6659440532673654 Mg
   0.8356412393853968    0.0006590295624512    0.8324229834807014 Mg
   0.0014705711871132    0.3337111870071608   -0.0014476034874275 Mg
   0.1669066416216903    0.5008412320587463   -0.0001591641133291 Mg
   0.3335082019530098    0.6686707595561612   -0.0003307772525864 Mg
   0.5014489357511429    0.8363603269748277   -0.0015813948967582 Mg
   0.0014641782534426    0.1672960301071055    0.1651599123229083 Mg
   0.1672931119207597    0.3336415579890808    0.1654122904877625 Mg
   0.3326167215531967    0.5003374677308702    0.1634491470436768 Mg
   0.5014252025800111    0.6701791489106548    0.1591974695257986 Mg
   0.6694948494596876    0.8350092592087764    0.1633151406538163 Mg
   0.0014536490788031    0.0006248894323101    0.3315524513967966 Mg
   0.1672827179258579    0.1674387581516897    0.3315325068321558 Mg
   0.3341664330465008    0.3328353967270076    0.3308262901251290 Mg
   0.5013992788830532    0.5008217973993667    0.3149101639981756 Mg
   0.6686019273016135    0.6663722169939216    0.3258850604680872 Mg
   0.8344518836949698    0.8343616614772170    0.3318738427122638 Mg
   0.1668534153092106    0.0018575334202945    0.4987470708212224 Mg
   0.3325775676449965    0.1654316200599232    0.4982850096786903 Mg
   0.5014196450045846    0.3168504650290441    0.4988242863991235 Mg
   0.6843054377426346    0.4952133060710865    0.4932255332643114 Mg
   0.8405718374052031    0.6683651674338210    0.4988709282648084 Mg
   0.3334609327506455    0.0016922963449605    0.6665955194931321 Mg
   0.5014172063004396    0.1611488140658252    0.6681681976269820 Mg
   0.6685610759486953    0.3278733629985898    0.6643149298621426 Mg
   0.8407810224656767    0.5008681099902995    0.6663794557408228 Mg
   0.5014746238865073    0.0003948541515108    0.8344006432996263 Mg
   0.6695448528842831    0.1653071381128112    0.8329850158127572 Mg
   0.8344328462228049    0.3339601059536377    0.8323332567587014 Mg
   0.0014548967113169    0.6680176293815288   -0.0014123706097182 Mg
   0.1673263160404348    0.8344541822490861   -0.0014566466247891 Mg
   0.0014607874124742    0.5007676485156913    0.1648606398257173 Mg
   0.1673141037889093    0.6679835202880204    0.1643982658283089 Mg
   0.3333427137619736    0.8349950920484446    0.1633003494914256 Mg
   0.0014660274093962    0.3336319695352887    0.3315418027397674 Mg
   0.1652305060127073    0.5005000156462404    0.3297010899413076 Mg
   0.3343056395738248    0.6663513415379068    0.3259285512453187 Mg
   0.5013935592294938    0.8495365139174157    0.3179617844899277 Mg
   0.0014530165070201    0.1668830014356925    0.4986155735521719 Mg
   0.1651994409803896    0.3316825418615682    0.4984338580010718 Mg
   0.3186113303489065    0.4952339935942795    0.4932336105047173 Mg
   0.5015546931252580    0.7129356915779700    0.4577565063283441 Mg
   0.6695473364398001    0.8445490468432909    0.4999165827180094 Mg
   0.0014523631330206    0.0006648732307547    0.6659070903303814 Mg
   0.1672582627135966    0.1663926903038567    0.6659305782746364 Mg
   0.3342197982080111    0.3277817965050084    0.6643249619566820 Mg
   0.5012445542135640    0.4592877540287722    0.7110786464894484 Mg
   0.6656955137664929    0.6727559102763500    0.6706116644381444 Mg
   0.8348085115612792    0.8348645283425188    0.6659015798644395 Mg
   0.1672894089494676    0.0005973809688254    0.8324059025698944 Mg
   0.3333324139467571    0.1652632171072948    0.8329719279282326 Mg
   0.5014213054632565    0.3197553299090719    0.8477109635163782 Mg
   0.6694475000891863    0.5019551845681187    0.8425182319914956 Mg
   0.8347709527318360    0.6679626998750731    0.8327903014353090 Mg
   0.0014739157831306    0.8345248823890505    0.1654636248800540 Mg
   0.0014490644164471    0.6680101398223249    0.3314428729831817 Mg
   0.1684533064468255    0.8343383080575507    0.3318810316281436 Mg
   0.0014777438377254    0.5001234183689599    0.4980807245514337 Mg
   0.1622993921442824    0.6683764780755819    0.4988831684007267 Mg
   0.3333938940419252    0.8445040613471477    0.4999176479844926 Mg
   0.0014856005499548    0.3334596022472771    0.6659625141849000 Mg
   0.1624017309918244    0.5008783591024653    0.6663712543251473 Mg
   0.3372201571458839    0.6727882778917624    0.6706818105180417 Mg
   0.5014973733655663    0.8402007618355718    0.6686319795916580 Mg
   0.0014656722323201    0.1675835284430658    0.8324590923559873 Mg
   0.1684794032759587    0.3339342425584736    0.8323087758516994 Mg
   0.3333830439269724    0.5019761579304612    0.8425209107083278 Mg
   0.5014684164308068    0.6706543028415842    0.8380352903589777 Mg
   0.6685058457755703    0.8355858398840985    0.8335722909951103 Mg
   0.0014251816620149    0.8350126339091327    0.4985533722926407 Mg
   0.0014700709452282    0.6681199389422763    0.6660559864311650 Mg
   0.1681135217549774    0.8348508153855011    0.6658796739559733 Mg
   0.0014851587022355    0.5006410911034133    0.8329808908265341 Mg
   0.1681532484768646    0.6679504298440778    0.8327953079080065 Mg
   0.3344357486561970    0.8355944846193083    0.8335318877019923 Mg
   0.0014609230064056    0.8343090434189394    0.8322216380147395 Mg
   0.5014627220609138    0.5785795277508854    0.5769072347601515 Mg
   0.8350513650135689    0.1680114005167642    0.1658443647705855 O
   0.0014909690907796    0.3348227000397345    0.1657140021716987 O
   0.0014838214002541    0.1678531574880721    0.3326121409273007 O
   0.5014513157008565    0.1687639425731630    0.1667384916624358 O
   0.6680869659355315    0.3347186817505125    0.1669332635436382 O
   0.8350111865565879    0.5011881850536470    0.1665848382396196 O
   0.0014776803237182    0.6672309199977592    0.1667682779090155 O
   0.6680733123535547    0.1689846245289131    0.3325999190100672 O
   0.8343671451658602    0.3357093583304156    0.3335849071628844 O
   0.0014777470086837    0.5016541539507907    0.3329117609336172 O
   0.8350204816185127    0.1686717847109246    0.4990244531069701 O
   0.0014765412167777    0.3349688287952416    0.4995683608191639 O
   0.0014606679901234    0.1688843967993468    0.6651223093506811 O
   0.1679179386374748    0.1679844431782645    0.1658316286345438 O
   0.3348447399242079    0.3346853294455189    0.1669104234718949 O
   0.5014435471200330    0.4999298702495301    0.1619401058669338 O
   0.6689189132992824    0.6672723954513528    0.1643248398652361 O
   0.8345755591806144    0.8335246127330279    0.1665915570685104 O
   0.0015022109250602    0.0005826190238099    0.1658198831607909 O
   0.3348331502117524    0.1689716521287791    0.3325941601442120 O
   0.5014438140532897    0.3392276354668561    0.3372026956671165 O
   0.6639598511409192    0.5006046637154551    0.3344448732305322 O
   0.8314442761614919    0.6662663861609893    0.3355654419807850 O
   0.0014814286789768    0.8328732805097910    0.3333252360023602 O
   0.5014513448934342    0.1639040007018078    0.4978566195818639 O
   0.6640181583101777    0.3364119396040076    0.4985493354121011 O
   0.8367951482291226    0.5022033821651639    0.5002355070293407 O
   0.0014540417989879    0.6673428897144156    0.4994689460614678 O
   0.6689640181320745    0.1663404436408417    0.6652107159451198 O
   0.8314274555025041    0.3376585876199738    0.6642783363788110 O
   0.0015368671190630    0.5015094139960813    0.6652863364742480 O
   0.8345785928407109    0.1687343980871587    0.8314570860362501 O
   0.0014864633601517    0.3354651826643674    0.8308023391267237 O
   0.0014818361814066    0.1680129742057805   -0.0015163027186129 O
   0.1679298035837592    0.5011526921218756    0.1665620815127276 O
   0.3340233059764297    0.6672620493880952    0.1643285548430201 O
   0.5014119253579776    0.8365196282682487    0.1619128959116519 O
   0.6684651143398243    0.0008912606824174    0.1660124540151121 O
   0.1685762524033543    0.3356731570693553    0.3335870808452477 O
   0.3388517946896386    0.5005712923839949    0.3344009359927588 O
   0.5014803399580486    0.6660179295359500    0.3180815939856458 O
   0.6643223161869108    0.8319760773716580    0.3349246997282082 O
   0.8345386175565745    0.0002554038099670    0.3327424942279831 O
   0.1679172335607111    0.1686125351535545    0.4990126377210410 O
   0.3388722818482217    0.3364155133699829    0.4985580456525649 O
   0.6362675975233557    0.6510850287584997    0.5001062672684157 O
   0.8315471884789789    0.8310170786231920    0.4987987836282516 O
   0.0014486903493036   -0.0001290856603959    0.4987670526100892 O
   0.3339701038745855    0.1663002040957786    0.6651879601006513 O
   0.5013841949102947    0.3198289571462630    0.6639031825913970 O
   0.6356522706648554    0.5020105486063982    0.6488122130960903 O
   0.8288790120186291    0.6642081131322377    0.6622194623951110 O
   0.0014604930573806    0.8319975515381171    0.6642383996001677 O
   0.5014483152048249    0.1637948046655910    0.8345612597546421 O
   0.6642668024480770    0.3370018185359842    0.8299261052872935 O
   0.8315205159839079    0.5008900627176418    0.8289586742713151 O
   0.0014712809045147    0.6663194937128021    0.8298966588762534 O
   0.6684543248454734    0.1681116734337320    0.9988330390827755 O
   0.8345128075349090    0.3349571153341974   -0.0018054858956765 O
   0.0014779387486751    0.5009660779383699   -0.0022260735203235 O
   0.1684082013729379    0.8335013347789079    0.1665631832202430 O
   0.3344578936091440    0.0009034107701284    0.1659991067966388 O
   0.1714708445912995    0.6662822058130349    0.3355490598609361 O
   0.3385207618774515    0.8319644400895347    0.3349202854629240 O
   0.5014260464270274    0.0052206022713138    0.3295075175472142 O
   0.1661896980451083    0.5022839238061105    0.5002088922534722 O
   0.3668633373448871    0.6509767481584242    0.5000592117960833 O
   0.5014706833554076    0.8512893004361659    0.4976080047596049 O
   0.6695883420192563    0.0036131950337937    0.4983216490301949 O
   0.1714848306256167    0.3375772118165473    0.6642300311571341 O
   0.3667928452564747    0.5021094979634779    0.6490432275825924 O
   0.5014779594018950    0.6820659424875790    0.6797232684991802 O
   0.6684430646408688    0.8349480149434206    0.6634895031539153 O
   0.8356482528562291    0.0004565256067561    0.6648387589372750 O
   0.1683665315093339    0.1686860106192837    0.8314320221126544 O
   0.3386431401303263    0.3369688571649848    0.8299339967837521 O
   0.5014829973078127    0.4996902266454471    0.8492582634644817 O
   0.6683806697640633    0.6655281435601286    0.8328111038537914 O
   0.8348256736798808    0.8330047061914569    0.8309407166357361 O
   0.0014914888933738    0.0007488799160353    0.8316007234025972 O
   0.3344666991180974    0.1680763084471360   -0.0011907892142582 O
   0.5014516849311400    0.3315324169516650    0.0033049856644507 O
   0.6695959942630670    0.5004273911452333    0.0015849299919962 O
   0.8356221464953532    0.6669432810941098    0.9983541305882944 O
   0.0015051194063090    0.8336751737725778   -0.0013842557839675 O
   0.1684146387706541    0.0002428183442804    0.3327501181508360 O
   0.1714008021013900    0.8310291372528321    0.4988237305017591 O
   0.3333489858784516    0.0035742546447457    0.4983127719253476 O
   0.1740363526390095    0.6642780161763524    0.6622584834470245 O
   0.3345717395991916    0.8349346924789242    0.6634546050875664 O
   0.5014938584581098    0.0013969670763203    0.6664787087793055 O
   0.1714230631555727    0.5008692425560214    0.8290001607216485 O
   0.3346048291655214    0.6655535922069643    0.8328657654524906 O
   0.5015023974195569    0.8366093497517875    0.8345589104731632 O
   0.6690616358143732    0.0006239791626881    0.8321442301435843 O
   0.1684361026648833    0.3349017061246325   -0.0018304481447893 O
   0.3333752322527691    0.5004028073081803    0.0015857111754750 O
   0.5014809484571402    0.6685452087604766   -0.0006116985753886 O
   0.6690280318031457    0.8341795524937814   -0.0014252917673558 O
   0.8352497943156052    0.0008185967743029    0.9987013172341237 O
   0.1673016192272148    0.0003952522729706    0.6648089439986965 O
   0.1681521739367321    0.8329905082269050    0.8309169075981453 O
   0.3339385416175831    0.0005954675278235    0.8321062368932415 O
   0.1673496637884920    0.6669113803125406   -0.0016739297432351 O
   0.3339399185490102    0.8341956769421601   -0.0014576684352169 O
   0.5014683393913963    0.0015807339012942   -0.0003968880525938 O
   0.1677396334588372    0.0007922586780527   -0.0013231332108452 O
