Mg109 O107                              
   1.00000000000000     
    12.5998379999999983    0.0000000000000004    0.0000000000000004
     0.0000000000000004   12.5998379999999983   -0.0000000000000004
    -0.0000000000000004   -0.0000000000000004   12.5998379999999983
   Mg   O 
   109   107
Direct
  0.6691507027243297  0.0007649507763129  0.9987525399765431
  0.8354347475015181  0.1672153911672054  0.9989010772486172
  0.8354353917437657  0.0009362178615587  0.1651684466479923
  0.3338023029762489  0.0007672554292466  0.9987363394776851
  0.5014765812452049  0.1648549544437795  0.0016183600377816
  0.6693484840145238  0.3333705809196185  0.0011969048276693
  0.8358844607376313  0.5008439249449246  0.9997930850645275
  0.5014547572104346  0.0035930288494906  0.1628594309456007
  0.6692441282387819  0.1673760834289797  0.1653713817777139
  0.8355874900180786  0.3337038057877469  0.1653847619393286
  0.6693114153943128  0.0031670441638650  0.3313433416371985
  0.8355774616302835  0.1674145004532752  0.3316440479787633
  0.8358659015393437  0.0018109295893199  0.4987828715787312
  0.0014778353175656  0.0007849397070160  0.9987196492166385
  0.1674927405009283  0.1672006967325472  0.9989045318374712
  0.3335623938128807  0.3333568412929254  0.0011735774995102
  0.5014510739991362  0.5003427150879898  0.0051597362500883
  0.6690292889632494  0.6683380189238222  0.9996178611700203
  0.8354526428056909  0.8343309317757303  0.9985272255918916
  0.1675233546703770  0.0009425575661042  0.1651491134996832
  0.3336943213662290  0.1673870824907322  0.1653436298368339
  0.5014641844957863  0.3325149478944098  0.1655772106802743
  0.6698913384511772  0.5004914286587460  0.1645145371321609
  0.8355198027686325  0.6679708827923266  0.1646086725438455
  0.3335655261273288  0.0031904025457498  0.3313402034268219
  0.5014363895726549  0.1675487655693544  0.3304978792344853
  0.6687554007365765  0.3327327533574092  0.3307297018641109
  0.8373436419177995  0.5005440759222363  0.3298176155976227
  0.5014346112724399  0.0071802862008995  0.4983286520185179
  0.6698970930822343  0.1664868674560628  0.4984610516103604
  0.8373397822953574  0.3318483795399176  0.4985242554618312
  0.6690255915268914  0.0016367666077293  0.6663118737361273
  0.8355283090946780  0.1666292205309792  0.6659125361697641
  0.8354688881206589  0.0005671216023897  0.8322881910137062
  0.0014489190789302  0.3337538748811959  0.9986266636485547
  0.1670168026392390  0.5008224275004005  0.9997970798914807
  0.3338968373439933  0.6683615031147523  0.9996146179159936
  0.5014657091993051  0.8356664845539157  0.9983517704236325
  0.0014649925328000  0.1672706482862997  0.1652023192421751
  0.1673342264547125  0.3336917941539310  0.1653799632110406
  0.3330077701538213  0.5004792958393122  0.1644751536637086
  0.5014362009032488  0.6696518731345604  0.1610110134130255
  0.6693412846463316  0.8349994063376314  0.1636494929466065
  0.0014670477338677  0.0006905820753384  0.3316770654722860
  0.1673446349595821  0.1674165375232028  0.3316142824143469
  0.3341145621912249  0.3327525989202144  0.3307140665423576
  0.5014175956957532  0.5001968460908047  0.3216634847495219
  0.6689377951220375  0.6669865473419917  0.3272081053864049
  0.8346883639619562  0.8345564834154774  0.3317351480917566
  0.1670139922986947  0.0018420062904873  0.4987797569479364
  0.3329978680474910  0.1665136828708292  0.4984400324806497
  0.5014254424738045  0.3236261672223190  0.4981690254807539
  0.6822137387273522  0.4947748765480907  0.4927409296599579
  0.8380451212439771  0.6682086771965811  0.4987690262692803
  0.3338826438714200  0.0016690745143029  0.6663192502111500
  0.5014274088423177  0.1630406650917199  0.6676493813723072
  0.6689214860987923  0.3292281541987960  0.6649538071206876
  0.8380687132245042  0.5008138037621941  0.6661819148663798
  0.5014633079752264  0.0003629670271046  0.8336606692250980
  0.6693751215887948  0.1656242706348255  0.8329835577749767
  0.8346608338687195  0.3337700319328984  0.8325203131108504
  0.0014616674537279  0.6678538530913416  0.9985020401973657
  0.1674934894188626  0.8343347665063700  0.9985068397548003
  0.0014600853796271  0.5008224522629948  0.1648995698552004
  0.1673906262911888  0.6679650245066387  0.1645803079229441
  0.3335476603827031  0.8350018219668655  0.1636156077087134
  0.0014576667026734  0.3337006016216494  0.3316481619065203
  0.1655666130330461  0.5005619437952041  0.3298226961834316
  0.3338972427282932  0.6669881086727856  0.3271934542738263
  0.5014196616674910  0.8479075220547152  0.3196444096338042
  0.0014565508827701  0.1669384331453993  0.4987382564337147
  0.1655368093459264  0.3318481279989143  0.4985085635245218
  0.3207104742039931  0.4948164995297251  0.4927834520151264
  0.5013475739057294  0.7113960265428727  0.4637219320267759
  0.6700384864819124  0.8426901259849200  0.4995718212328636
  0.0014599166625015  0.0005538210114093  0.6657776455234723
  0.1673610777172577  0.1666254548978562  0.6659286568588565
  0.3338722473518144  0.3292052327844314  0.6649633834235059
  0.5013101021048657  0.4655470585404865  0.7095554384062074
  0.6663200992948527  0.6708629030426161  0.6687844662704424
  0.8348489454403640  0.8345623027182741  0.6658094052489157
  0.1674692756047794  0.0005547416406230  0.8323068684496320
  0.3335390166351186  0.1656389080813240  0.8329990448450511
  0.5014574796071825  0.3215681011479526  0.8460134701622453
  0.6700616387594767  0.5015981541937549  0.8406840745947624
  0.8348461818623504  0.6678810766640414  0.8324966264733404
  0.0014741524503545  0.8344541216962418  0.1653644405584973
  0.0014579427218012  0.6680332506533432  0.3317986538661319
  0.1682160984307393  0.8345537002078913  0.3317218582295304
  0.0014551267975167  0.5005299993994841  0.4984744735364419
  0.1648880854628778  0.6682313495301859  0.4987659298178945
  0.3327834158200219  0.8427444112902621  0.4995810025619085
  0.0014252464806667  0.3338350539606851  0.6659851891050493
  0.1648207927736371  0.5007936777016022  0.6661915082621376
  0.3365607432957749  0.6708281125355871  0.6687677572167599
  0.5014288205013164  0.8385503882607316  0.6676363204889458
  0.0014559189502381  0.1674412090098248  0.8323921630721001
  0.1681993567433700  0.3337603206930165  0.8325250150038107
  0.3327744917438474  0.5016071386472399  0.8407259542623969
  0.5014477809865054  0.6696436910814223  0.8364826477953460
  0.6685618154144738  0.8350566889188035  0.8330203551505319
  0.0014512445953869  0.8345567053359449  0.4986050398373153
  0.0014565760475539  0.6676975122261727  0.6656198152312133
  0.1680635962013661  0.8345628436455698  0.6658206735284488
  0.0014339673480559  0.5006716508978946  0.8325022035703806
  0.1680608078353690  0.6678732442135572  0.8324979587456510
  0.3343656682522539  0.8350603348156456  0.8330158897582688
  0.0014602288477105  0.8341379063383786  0.8320692640677796
  0.5016402746877410  0.5683106088973823  0.5665269445669754
  0.8351109961432035  0.1677660124102978  0.1656740249777701
  0.0014794597621403  0.3345993838881719  0.1655730741695706
  0.0014924206804734  0.1676825013402317  0.3324768420647679
  0.5014928661798295  0.1681601905566293  0.1661327704610793
  0.6684470050206208  0.3344049726979521  0.1664781119284526
  0.8353282312739434  0.5011690855683304  0.1661211799278656
  0.0014878762741508  0.6674188465483896  0.1663687533600104
  0.6684243180667711  0.1684986406973713  0.3323345225210373
  0.8347915885524807  0.3351733647717334  0.3331151712519982
  0.0014737889415916  0.5015057775160250  0.3327165640097248
  0.8353303898165106  0.1681786085739693  0.4990641357288554
  0.0014629005290343  0.3347919605938968  0.4994338522323493
  0.0014560391450272  0.1684515751142747  0.6653149115857956
  0.1678789588714315  0.1677712532812800  0.1656420224906405
  0.3345234596547814  0.3344130022526334  0.1664678724692374
  0.5014837492119402  0.5005634884828394  0.1646302342735777
  0.6687998457607960  0.6676445961176530  0.1647028025057493
  0.8347002738644529  0.8337481615096040  0.1661217950255409
  0.0015045510298569  0.0005871557881535  0.1656323198576504
  0.3345304508425622  0.1685136792976526  0.3323205386129068
  0.5014515012012003  0.3363611120249412  0.3343038452844169
  0.6665046451642394  0.5006852106016982  0.3328686038688050
  0.8324409965718887  0.6668885019265273  0.3345841688749336
  0.0014880003498387  0.8333292823991353  0.3329780475443007
  0.5014730219134219  0.1666452757783904  0.4984884792034041
  0.6665248551007211  0.3349193837035627  0.4986099477030848
  0.8363457958327561  0.5018558487443114  0.4998203733348256
  0.0014748195455982  0.6674207187027009  0.4992193425719567
  0.6688030174073488  0.1667392415004630  0.6655683905858619
  0.8324233510012402  0.3366668444660263  0.6648498381818496
  0.0014504467456655  0.5013089143416248  0.6653365953428975
  0.8346827058489785  0.1682015516077864  0.8316723877877469
  0.0014500462073912  0.3350705366332100  0.8312421038480255
  0.0014822484362147  0.1677424071880198  0.9984984521450571
  0.1676394378784174  0.5011590643875649  0.1661228612437282
  0.3341460959455264  0.6676541307391062  0.1646780647659088
  0.5014555847615308  0.8364379708192280  0.1623535264810936
  0.6684723960756868  0.0009160220808087  0.1656431141135900
  0.1681753028993242  0.3351716264709801  0.3331063419354417
  0.3363978822446258  0.5006994576212679  0.3328859622811225
  0.5014373423883873  0.6686183745737063  0.3213317978176153
  0.6653915624366334  0.8333577828123420  0.3339003461036075
  0.8347514275144591  0.0004369717619268  0.3325569969471247
  0.1676352480450134  0.1681842557785929  0.4990510031368091
  0.3364069103641795  0.3349278494444002  0.4986347629198168
  0.6458090831750765  0.6578971905322336  0.4995819523732886
  0.8322823550147849  0.8318407231996727  0.4987893707402135
  0.0014663457481355  0.9999217077317508  0.4988343345809018
  0.3341507293130673  0.1667422620063203  0.6655750273615850
  0.5014228313009467  0.3232965954758649  0.6664995555536651
  0.6456347521319997  0.5015973151122484  0.6558308974369423
  0.8304116448393534  0.6651326054603094  0.6630617083595163
  0.0014700640960570  0.8324374011780321  0.6644917043231949
  0.5014888513063298  0.1643432535920255  0.8344542905510259
  0.6653662486992353  0.3359485188295454  0.8313034797744371
  0.8322777434703156  0.5008766356137436  0.8297555591037105
  0.0014518557505861  0.6666032466582213  0.8303303800586467
  0.6684866449179916  0.1677161823783843  0.9988537088768897
  0.8347308833712542  0.3346589766721272  0.9983752897826524
  0.0014715330683702  0.5009521121720035  0.9978310729451495
  0.1682911598792941  0.8337499885560508  0.1661021253148046
  0.3345072362956655  0.0009308088371323  0.1656171057546059
  0.1704752369689037  0.6669078885757619  0.3345585261686548
  0.3375083774724406  0.8333719271755078  0.3338954058751668
  0.5014427176946993  0.0051204469827581  0.3298923460614639
  0.1665754110764352  0.5018724371442861  0.4997968159692553
  0.3569356985156428  0.6579654114307828  0.4995819171805604
  0.5014398809518337  0.8514168964196340  0.4974984336486221
  0.6693957769599049  0.0034703215536033  0.4985332596034771
  0.1704184316236907  0.3366061112087560  0.6648518181710953
  0.3570412313212437  0.5015922097813718  0.6559121709595206
  0.5014562478103091  0.6742856982009426  0.6721995395817293
  0.6678074618468000  0.8345438622995958  0.6639679982534313
  0.8353598783285647  0.0003562959280744  0.6650059257743371
  0.1682632269370460  0.1681906226657091  0.8316827377952792
  0.3375451467789397  0.3359202957596485  0.8313127757680484
  0.5014685444877302  0.4995123536091224  0.8494610086205531
  0.6678199876058428  0.6660310403503871  0.8324427816938540
  0.8347653258726403  0.8331883394753091  0.8310934264533651
  0.0014966302501801  0.0006097280830169  0.8316376057609445
  0.3345112937206364  0.1677214461725060  0.9988382809110996
  0.5014677041140955  0.3318980496495732  0.0031651287119878
  0.6694342469311182  0.5006028648616846  0.0014407472964454
  0.8353600828527658  0.6671114992446147  0.9982737661820189
  0.0014949942626562  0.8337305528904000  0.9985009114047658
  0.1682205191435134  0.0004499284159722  0.3325460654174704
  0.1706097277350893  0.8318706927046235  0.4988099478189736
  0.3335113351947146  0.0035109007923196  0.4985310899784444
  0.1724799381941501  0.6651249750236132  0.6631032816488662
  0.3351117944652675  0.8345551680296633  0.6639827953643711
  0.5014732054880594  0.0016285432774796  0.6663613802418882
  0.1705963307008147  0.5008515874520678  0.8298089229703954
  0.3351366279869002  0.6660349059152079  0.8324593595887050
  0.5014827843313625  0.8350351058090240  0.8329873920519387
  0.6687710691019181  0.0004218483123960  0.8320548415992994
  0.1682173726128270  0.3346449200132641  0.9983658063912181
  0.3335184189011495  0.5006060051407567  0.0014583129954251
  0.5014861347954367  0.6684090849771537  0.9995689512525133
  0.6687636966841215  0.8341140928444567  0.9983753427335500
  0.8351809956213285  0.0006704043069939  0.9985835114105248
  0.1676033191644959  0.0003622242220958  0.6650197202590430
  0.1682018378956619  0.8331834125836233  0.8310986494189060
  0.3342253653352568  0.0004251832264982  0.8320574914021525
  0.1676190721475264  0.6670962412238849  0.9982651384014788
  0.3342227900080805  0.8341257598937850  0.9983649971457406
  0.5014972089290721  0.0010757531538759  0.9990117274308018
  0.1678287136445949  0.0006620254962412  0.9985757466645515
 
  0.00000000E+00  0.00000000E+00  0.00000000E+00
  0.00000000E+00  0.00000000E+00  0.00000000E+00
  0.00000000E+00  0.00000000E+00  0.00000000E+00
  0.00000000E+00  0.00000000E+00  0.00000000E+00
  0.00000000E+00  0.00000000E+00  0.00000000E+00
  0.00000000E+00  0.00000000E+00  0.00000000E+00
  0.00000000E+00  0.00000000E+00  0.00000000E+00
  0.00000000E+00  0.00000000E+00  0.00000000E+00
  0.00000000E+00  0.00000000E+00  0.00000000E+00
  0.00000000E+00  0.00000000E+00  0.00000000E+00
  0.00000000E+00  0.00000000E+00  0.00000000E+00
  0.00000000E+00  0.00000000E+00  0.00000000E+00
  0.00000000E+00  0.00000000E+00  0.00000000E+00
  0.00000000E+00  0.00000000E+00  0.00000000E+00
  0.00000000E+00  0.00000000E+00  0.00000000E+00
  0.00000000E+00  0.00000000E+00  0.00000000E+00
  0.00000000E+00  0.00000000E+00  0.00000000E+00
  0.00000000E+00  0.00000000E+00  0.00000000E+00
  0.00000000E+00  0.00000000E+00  0.00000000E+00
  0.00000000E+00  0.00000000E+00  0.00000000E+00
  0.00000000E+00  0.00000000E+00  0.00000000E+00
  0.00000000E+00  0.00000000E+00  0.00000000E+00
  0.00000000E+00  0.00000000E+00  0.00000000E+00
  0.00000000E+00  0.00000000E+00  0.00000000E+00
  0.00000000E+00  0.00000000E+00  0.00000000E+00
  0.00000000E+00  0.00000000E+00  0.00000000E+00
  0.00000000E+00  0.00000000E+00  0.00000000E+00
  0.00000000E+00  0.00000000E+00  0.00000000E+00
  0.00000000E+00  0.00000000E+00  0.00000000E+00
  0.00000000E+00  0.00000000E+00  0.00000000E+00
  0.00000000E+00  0.00000000E+00  0.00000000E+00
  0.00000000E+00  0.00000000E+00  0.00000000E+00
  0.00000000E+00  0.00000000E+00  0.00000000E+00
  0.00000000E+00  0.00000000E+00  0.00000000E+00
  0.00000000E+00  0.00000000E+00  0.00000000E+00
  0.00000000E+00  0.00000000E+00  0.00000000E+00
  0.00000000E+00  0.00000000E+00  0.00000000E+00
  0.00000000E+00  0.00000000E+00  0.00000000E+00
  0.00000000E+00  0.00000000E+00  0.00000000E+00
  0.00000000E+00  0.00000000E+00  0.00000000E+00
  0.00000000E+00  0.00000000E+00  0.00000000E+00
  0.00000000E+00  0.00000000E+00  0.00000000E+00
  0.00000000E+00  0.00000000E+00  0.00000000E+00
  0.00000000E+00  0.00000000E+00  0.00000000E+00
  0.00000000E+00  0.00000000E+00  0.00000000E+00
  0.00000000E+00  0.00000000E+00  0.00000000E+00
  0.00000000E+00  0.00000000E+00  0.00000000E+00
  0.00000000E+00  0.00000000E+00  0.00000000E+00
  0.00000000E+00  0.00000000E+00  0.00000000E+00
  0.00000000E+00  0.00000000E+00  0.00000000E+00
  0.00000000E+00  0.00000000E+00  0.00000000E+00
  0.00000000E+00  0.00000000E+00  0.00000000E+00
  0.00000000E+00  0.00000000E+00  0.00000000E+00
  0.00000000E+00  0.00000000E+00  0.00000000E+00
  0.00000000E+00  0.00000000E+00  0.00000000E+00
  0.00000000E+00  0.00000000E+00  0.00000000E+00
  0.00000000E+00  0.00000000E+00  0.00000000E+00
  0.00000000E+00  0.00000000E+00  0.00000000E+00
  0.00000000E+00  0.00000000E+00  0.00000000E+00
  0.00000000E+00  0.00000000E+00  0.00000000E+00
  0.00000000E+00  0.00000000E+00  0.00000000E+00
  0.00000000E+00  0.00000000E+00  0.00000000E+00
  0.00000000E+00  0.00000000E+00  0.00000000E+00
  0.00000000E+00  0.00000000E+00  0.00000000E+00
  0.00000000E+00  0.00000000E+00  0.00000000E+00
  0.00000000E+00  0.00000000E+00  0.00000000E+00
  0.00000000E+00  0.00000000E+00  0.00000000E+00
  0.00000000E+00  0.00000000E+00  0.00000000E+00
  0.00000000E+00  0.00000000E+00  0.00000000E+00
  0.00000000E+00  0.00000000E+00  0.00000000E+00
  0.00000000E+00  0.00000000E+00  0.00000000E+00
  0.00000000E+00  0.00000000E+00  0.00000000E+00
  0.00000000E+00  0.00000000E+00  0.00000000E+00
  0.00000000E+00  0.00000000E+00  0.00000000E+00
  0.00000000E+00  0.00000000E+00  0.00000000E+00
  0.00000000E+00  0.00000000E+00  0.00000000E+00
  0.00000000E+00  0.00000000E+00  0.00000000E+00
  0.00000000E+00  0.00000000E+00  0.00000000E+00
  0.00000000E+00  0.00000000E+00  0.00000000E+00
  0.00000000E+00  0.00000000E+00  0.00000000E+00
  0.00000000E+00  0.00000000E+00  0.00000000E+00
  0.00000000E+00  0.00000000E+00  0.00000000E+00
  0.00000000E+00  0.00000000E+00  0.00000000E+00
  0.00000000E+00  0.00000000E+00  0.00000000E+00
  0.00000000E+00  0.00000000E+00  0.00000000E+00
  0.00000000E+00  0.00000000E+00  0.00000000E+00
  0.00000000E+00  0.00000000E+00  0.00000000E+00
  0.00000000E+00  0.00000000E+00  0.00000000E+00
  0.00000000E+00  0.00000000E+00  0.00000000E+00
  0.00000000E+00  0.00000000E+00  0.00000000E+00
  0.00000000E+00  0.00000000E+00  0.00000000E+00
  0.00000000E+00  0.00000000E+00  0.00000000E+00
  0.00000000E+00  0.00000000E+00  0.00000000E+00
  0.00000000E+00  0.00000000E+00  0.00000000E+00
  0.00000000E+00  0.00000000E+00  0.00000000E+00
  0.00000000E+00  0.00000000E+00  0.00000000E+00
  0.00000000E+00  0.00000000E+00  0.00000000E+00
  0.00000000E+00  0.00000000E+00  0.00000000E+00
  0.00000000E+00  0.00000000E+00  0.00000000E+00
  0.00000000E+00  0.00000000E+00  0.00000000E+00
  0.00000000E+00  0.00000000E+00  0.00000000E+00
  0.00000000E+00  0.00000000E+00  0.00000000E+00
  0.00000000E+00  0.00000000E+00  0.00000000E+00
  0.00000000E+00  0.00000000E+00  0.00000000E+00
  0.00000000E+00  0.00000000E+00  0.00000000E+00
  0.00000000E+00  0.00000000E+00  0.00000000E+00
  0.00000000E+00  0.00000000E+00  0.00000000E+00
  0.00000000E+00  0.00000000E+00  0.00000000E+00
  0.00000000E+00  0.00000000E+00  0.00000000E+00
  0.00000000E+00  0.00000000E+00  0.00000000E+00
  0.00000000E+00  0.00000000E+00  0.00000000E+00
  0.00000000E+00  0.00000000E+00  0.00000000E+00
  0.00000000E+00  0.00000000E+00  0.00000000E+00
  0.00000000E+00  0.00000000E+00  0.00000000E+00
  0.00000000E+00  0.00000000E+00  0.00000000E+00
  0.00000000E+00  0.00000000E+00  0.00000000E+00
  0.00000000E+00  0.00000000E+00  0.00000000E+00
  0.00000000E+00  0.00000000E+00  0.00000000E+00
  0.00000000E+00  0.00000000E+00  0.00000000E+00
  0.00000000E+00  0.00000000E+00  0.00000000E+00
  0.00000000E+00  0.00000000E+00  0.00000000E+00
  0.00000000E+00  0.00000000E+00  0.00000000E+00
  0.00000000E+00  0.00000000E+00  0.00000000E+00
  0.00000000E+00  0.00000000E+00  0.00000000E+00
  0.00000000E+00  0.00000000E+00  0.00000000E+00
  0.00000000E+00  0.00000000E+00  0.00000000E+00
  0.00000000E+00  0.00000000E+00  0.00000000E+00
  0.00000000E+00  0.00000000E+00  0.00000000E+00
  0.00000000E+00  0.00000000E+00  0.00000000E+00
  0.00000000E+00  0.00000000E+00  0.00000000E+00
  0.00000000E+00  0.00000000E+00  0.00000000E+00
  0.00000000E+00  0.00000000E+00  0.00000000E+00
  0.00000000E+00  0.00000000E+00  0.00000000E+00
  0.00000000E+00  0.00000000E+00  0.00000000E+00
  0.00000000E+00  0.00000000E+00  0.00000000E+00
  0.00000000E+00  0.00000000E+00  0.00000000E+00
  0.00000000E+00  0.00000000E+00  0.00000000E+00
  0.00000000E+00  0.00000000E+00  0.00000000E+00
  0.00000000E+00  0.00000000E+00  0.00000000E+00
  0.00000000E+00  0.00000000E+00  0.00000000E+00
  0.00000000E+00  0.00000000E+00  0.00000000E+00
  0.00000000E+00  0.00000000E+00  0.00000000E+00
  0.00000000E+00  0.00000000E+00  0.00000000E+00
  0.00000000E+00  0.00000000E+00  0.00000000E+00
  0.00000000E+00  0.00000000E+00  0.00000000E+00
  0.00000000E+00  0.00000000E+00  0.00000000E+00
  0.00000000E+00  0.00000000E+00  0.00000000E+00
  0.00000000E+00  0.00000000E+00  0.00000000E+00
  0.00000000E+00  0.00000000E+00  0.00000000E+00
  0.00000000E+00  0.00000000E+00  0.00000000E+00
  0.00000000E+00  0.00000000E+00  0.00000000E+00
  0.00000000E+00  0.00000000E+00  0.00000000E+00
  0.00000000E+00  0.00000000E+00  0.00000000E+00
  0.00000000E+00  0.00000000E+00  0.00000000E+00
  0.00000000E+00  0.00000000E+00  0.00000000E+00
  0.00000000E+00  0.00000000E+00  0.00000000E+00
  0.00000000E+00  0.00000000E+00  0.00000000E+00
  0.00000000E+00  0.00000000E+00  0.00000000E+00
  0.00000000E+00  0.00000000E+00  0.00000000E+00
  0.00000000E+00  0.00000000E+00  0.00000000E+00
  0.00000000E+00  0.00000000E+00  0.00000000E+00
  0.00000000E+00  0.00000000E+00  0.00000000E+00
  0.00000000E+00  0.00000000E+00  0.00000000E+00
  0.00000000E+00  0.00000000E+00  0.00000000E+00
  0.00000000E+00  0.00000000E+00  0.00000000E+00
  0.00000000E+00  0.00000000E+00  0.00000000E+00
  0.00000000E+00  0.00000000E+00  0.00000000E+00
  0.00000000E+00  0.00000000E+00  0.00000000E+00
  0.00000000E+00  0.00000000E+00  0.00000000E+00
  0.00000000E+00  0.00000000E+00  0.00000000E+00
  0.00000000E+00  0.00000000E+00  0.00000000E+00
  0.00000000E+00  0.00000000E+00  0.00000000E+00
  0.00000000E+00  0.00000000E+00  0.00000000E+00
  0.00000000E+00  0.00000000E+00  0.00000000E+00
  0.00000000E+00  0.00000000E+00  0.00000000E+00
  0.00000000E+00  0.00000000E+00  0.00000000E+00
  0.00000000E+00  0.00000000E+00  0.00000000E+00
  0.00000000E+00  0.00000000E+00  0.00000000E+00
  0.00000000E+00  0.00000000E+00  0.00000000E+00
  0.00000000E+00  0.00000000E+00  0.00000000E+00
  0.00000000E+00  0.00000000E+00  0.00000000E+00
  0.00000000E+00  0.00000000E+00  0.00000000E+00
  0.00000000E+00  0.00000000E+00  0.00000000E+00
  0.00000000E+00  0.00000000E+00  0.00000000E+00
  0.00000000E+00  0.00000000E+00  0.00000000E+00
  0.00000000E+00  0.00000000E+00  0.00000000E+00
  0.00000000E+00  0.00000000E+00  0.00000000E+00
  0.00000000E+00  0.00000000E+00  0.00000000E+00
  0.00000000E+00  0.00000000E+00  0.00000000E+00
  0.00000000E+00  0.00000000E+00  0.00000000E+00
  0.00000000E+00  0.00000000E+00  0.00000000E+00
  0.00000000E+00  0.00000000E+00  0.00000000E+00
  0.00000000E+00  0.00000000E+00  0.00000000E+00
  0.00000000E+00  0.00000000E+00  0.00000000E+00
  0.00000000E+00  0.00000000E+00  0.00000000E+00
  0.00000000E+00  0.00000000E+00  0.00000000E+00
  0.00000000E+00  0.00000000E+00  0.00000000E+00
  0.00000000E+00  0.00000000E+00  0.00000000E+00
  0.00000000E+00  0.00000000E+00  0.00000000E+00
  0.00000000E+00  0.00000000E+00  0.00000000E+00
  0.00000000E+00  0.00000000E+00  0.00000000E+00
  0.00000000E+00  0.00000000E+00  0.00000000E+00
  0.00000000E+00  0.00000000E+00  0.00000000E+00
  0.00000000E+00  0.00000000E+00  0.00000000E+00
  0.00000000E+00  0.00000000E+00  0.00000000E+00
  0.00000000E+00  0.00000000E+00  0.00000000E+00
  0.00000000E+00  0.00000000E+00  0.00000000E+00
  0.00000000E+00  0.00000000E+00  0.00000000E+00
  0.00000000E+00  0.00000000E+00  0.00000000E+00
  0.00000000E+00  0.00000000E+00  0.00000000E+00
  0.00000000E+00  0.00000000E+00  0.00000000E+00
  0.00000000E+00  0.00000000E+00  0.00000000E+00
  0.00000000E+00  0.00000000E+00  0.00000000E+00
  0.00000000E+00  0.00000000E+00  0.00000000E+00
  0.00000000E+00  0.00000000E+00  0.00000000E+00
  0.00000000E+00  0.00000000E+00  0.00000000E+00
