pymatgen with grid density = 595 / number of atoms
0
Gamma
7 7 2
