GGA = PS # PBEsol
ALGO = Normal
EDIFF = 1e-04
EDIFFG = 1e-05
ENCUT = 450
IBRION = 2
ISIF = 3
ISMEAR = 0
ISPIN = 1
ISYM = 2 # Symmetry on
KPAR = 4
LCHARG = .TRUE.
LHFCALC = .FALSE. # GGA
LWAVE = .FALSE.
NCORE = 8
NELM = 60
NELMIN = 5
NSW = 1000
PREC = Accurate
SIGMA = 0.1