Mg1 O1
1.0
   2.5682920600000001   -0.0000000000000000    1.4828045900000000
   0.8560976800000000    2.4214088000000000    1.4828045900000000
  -0.0000000100000000   -0.0000000000000000    2.9656071900000001
Mg O
1 1
direct
   0.0000000000000000    0.0000000000000000   -0.0000000000000000 Mg
   0.5000000000000000    0.5000000000000000    0.5000000000000000 O
