KPOINTS from doped, with reciprocal_density = 60/Å⁻³
0
Gamma
7 7 4
