KPOINTS from doped, with reciprocal_density = 915/Å⁻³
0
Gamma
16 16 5
