40.0% N(Distort)=4 ~[0.5,0.5,0.5]       
   1.00000000000000     
    12.5998379999999983    0.0000000000000004    0.0000000000000004
     0.0000000000000004   12.5998379999999983   -0.0000000000000004
    -0.0000000000000004   -0.0000000000000004   12.5998379999999983
   Mg   O 
   109   107
Direct
  0.6669105593846891 -0.0009654053093043 -0.0019700776678593
  0.8333745419574652  0.1653638329161518 -0.0016409656474681
  0.8333835211272932 -0.0006382055481541  0.1643346644883964
  0.3326234477666169 -0.0010150129037983  0.9979593328395884
  0.4997240186550389  0.1643737918237524  0.9995580805097962
  0.6671254308998064  0.3315952843146736 -0.0000833064605920
  0.8343801636211696  0.4989788334215797 -0.0004538369921122
  0.4997152153034841  0.0005545321334078  0.1633783409282917
  0.6667422268414679  0.1658170631176614  0.1647928028125170
  0.8329191037777862  0.3320053925415997  0.1648329919916929
  0.6671309615561061  0.0008791774444571  0.3305656056949083
  0.8329213232384807  0.1658303436244883  0.3309655552923200
  0.8343667987946088  0.0005317401809535  0.4979497850252192
 -0.0002179752236422 -0.0010164560707292 -0.0020443682426410
  0.1659950818229557  0.1652986054217596  0.9978884987632690
  0.3322677258685919  0.3317249154887225 -0.0010164227114624
  0.5000178545375557  0.4987596770559335  0.0025012501402036
  0.6670036274369165  0.6664850672989681 -0.0009582232909137
  0.8334681969507146  0.8327331263445623  0.9978963318572794
  0.1659925666153404 -0.0010701006335893  0.1642665304521277
  0.3323782320084860  0.1648636827413632  0.1638168796069774
  0.4997536718931097  0.3316536730869354  0.1648759513755884
  0.6670904969820042  0.4989995027616215  0.1648855377880690
  0.8338846912551108  0.6663480911850042  0.1638109125749096
  0.3322730668988666  0.0000221005677330  0.3306970459832473
  0.4997576232402156  0.1658915903751782  0.3306330155845946
  0.6663460544121217  0.3324101185671436  0.3313914598034887
  0.8328484881600569  0.4990221770227649  0.3306699188253956
  0.5000165659538702  0.0034663710851018  0.4977508141185045
  0.6671078697087122  0.1658678529856941  0.4979564253071189
  0.8328589409037787  0.3316526763190719  0.4980078718860082
  0.6670257860103785  0.0000021406501459  0.6654913287494760
  0.8339143912139108  0.1648006860615528  0.6653478535629018
  0.8334681399339682 -0.0011173687653862  0.8317415518709295
 -0.0002976734737440  0.3318057402422491 -0.0019580733496133
  0.1657683212123469  0.4987926860086171 -0.0019049437714814
  0.3328147862054507  0.6659366271312099 -0.0011122812818569
  0.4999099638362601  0.8330091384572768 -0.0018988310394952
 -0.0006187567432557  0.1653864481170050  0.1643515183743626
  0.1652749300915178  0.3314999384680863  0.1637842646961264
  0.3317071796760495  0.4987495656175881  0.1634075045076148
  0.4999768315172673  0.6670755331201023  0.1634215346764531
  0.6672141390746024  0.8335122586494359  0.1637582429178310
 -0.0003088043971153 -0.0009426302033325  0.3307711778464024
  0.1652719529024004  0.1648179587855160  0.3304931433922285
  0.3323867894027564  0.3282343111941090  0.3272209310542653
  0.4997644778363426  0.4989843287312593  0.3279837820775379
  0.6704471116935405  0.6664172318282450  0.3272318160209890
  0.8339351947433662  0.8334867025324090  0.3304503855602136
  0.1657653257316507 -0.0008814425406511  0.4977641393793975
  0.3317180906321699  0.1644234399426299  0.4977510005963025
  0.4998035529316098  0.3289889749035233  0.4980197355632804
  0.6697282059784232  0.4990140899821147  0.4980315389433450
  0.8343224953583448  0.6670885387020221  0.4977370763281346
  0.3328369107854126 -0.0001355937686309  0.6649069688420778
  0.5000398855691861  0.1643789587503283  0.6660749664138947
  0.6705089837037667  0.3282276847048432  0.6654125091752896
  0.8343499861468685  0.4987343535768746  0.6661019655824926
  0.4999254756377587 -0.0008838599993836  0.8320083227979139
  0.6672564542244067  0.1647520735527723  0.8325005971153263
  0.8339647571153225  0.3314520372310172  0.8325016720485729
 -0.0002353641770324  0.6660617454962589 -0.0020399074522234
  0.1661612190945670  0.8325729842338777 -0.0020932104997951
  0.9982220150901573  0.4989733439427196  0.1633771528930017
  0.1659312492484255  0.6663097215048299  0.1638117888208821
  0.3324186515136023  0.8328172831333103  0.1638267987622415
 -0.0021382742097586  0.3316349366954810  0.3306364103103799
  0.1584374722977061  0.4991270359029460  0.3247805936728386
  0.3328593476849969  0.6658727716078772  0.3296474731975693
  0.4996259832505277  0.8402710181693966  0.3248220447922879
 -0.0017999560804568  0.1643768444663865  0.4979746141693163
  0.1584540386002789  0.3257917850671581  0.4981480163421023
  0.3004120132086279  0.4802783406251540  0.4792536540553771
  0.5183547429660592  0.6982567613065688  0.4793731881731869
  0.6729299979270347  0.8402688531263648  0.4981175145911778
 -0.0002197176864741 -0.0010482432412469  0.6650657521007057
  0.1659415035353684  0.1648054410475591  0.6653161756528673
  0.3328968879734140  0.3306086838914941  0.6649072559766014
  0.5184675191500289  0.4803138093077453  0.6973384930889186
  0.6681212547822952  0.6658573080816378  0.6649019731446948
  0.8339134314049907  0.8328219422714284  0.6653325206101903
  0.1661790892567906 -0.0010849719015714  0.8315585002088434
  0.3324315841403538  0.1648070569893665  0.8318031773198724
  0.4996781738766660  0.3257758057946938  0.8392915067139521
  0.6729792280359629  0.4991292974917679  0.8393230322246538
  0.8339284725795246  0.6663128389311859  0.8318311371227758
 -0.0001750463541189  0.8327192723011558  0.1642401843744636
 -0.0012701752643524  0.6664876673913026  0.3307161133469839
  0.1661572235214868  0.8325765363287426  0.3307051408500671
 -0.0047500957304530  0.4987539219030755  0.4977873177325927
  0.1628225243723965  0.6663780194136784  0.4975424352067051
  0.3323553304880095  0.8359171225640596  0.4975337761409898
 -0.0012717008570326  0.3316929009434299  0.6654844034871232
  0.1628211798835086  0.4985381073428234  0.6653915323687183
  0.3269871356005255  0.6717809761821154  0.6707640365969068
  0.5002301375625323  0.8359337646565573  0.6653982191052803
 -0.0001587296792415  0.1652591510550484  0.8317252847015009
  0.1661652075349699  0.3317147613212587  0.8315584517112486
  0.3323879818684644  0.4985324803341916  0.8349244280809310
  0.5002104162674337  0.6664078747554836  0.8349468764913225
  0.6670102530308529  0.8325786491231121  0.8315888560580489
 -0.0003520847225428  0.8330070012393297  0.4977834098869011
  0.9988665720425812  0.6659384870029214  0.6649329636375866
  0.1651123973617426  0.8336437528034244  0.6648471145310231
 -0.0003566812793437  0.4987800735733810  0.8319896405399467
  0.1651111908474032  0.6658434741083809  0.8326347521667553
  0.3328846168953507  0.8336369105465473  0.8326494848776018
 -0.0001509849321108  0.8325633601120790  0.8315693048389805
  0.4430761653130298  0.5555475790561578  0.5546522031830906
  0.8328991741656034  0.1658517074238841  0.1647960877905477
 -0.0007171059766008  0.3323411891610001  0.1646340572792707
 -0.0007185341585975  0.1656509048132844  0.3313222627321780
  0.4994667802297458  0.1661006349482887  0.1650693890251344
  0.6660292804836405  0.3326751691685287  0.1657116175280779
  0.8326250875185373  0.4992140598328010  0.1650949169590838
 -0.0001313463991728  0.6656955591656845  0.1645178507552909
  0.6660427262405839  0.1667252850409091  0.3316190229243156
  0.8319958926622608  0.3327172189724367  0.3316829845169661
  0.9971244047150480  0.4990659399537645  0.3303336646098354
  0.8326070977057438  0.1660892674003068  0.4982052029261670
 -0.0028641790765886  0.3313035000534828  0.4980449539940024
 -0.0001151110167198  0.1654972583626271  0.6647123589027752
  0.1661056163888731  0.1656231591345459  0.1645778633560060
  0.3325491804399329  0.3319562288250893  0.1643822906011685
  0.4993368686950254  0.4993884438942701  0.1657335745445155
  0.6667418690045027  0.6662016992014135  0.1643833742087741
  0.8330959546686447  0.8326054489971619  0.1645519504647774
 -0.0002481032050472 -0.0010475658499668  0.1645417844890931
  0.3325564590997738  0.1654231053302462  0.3309099019996567
  0.4988292184098393  0.3333878947884743  0.3323556106181426
  0.6653589908787079  0.4999261024323327  0.3323492767216717
  0.8332883124229050  0.6662022011944694  0.3309115022001010
  0.0000387347517608  0.8323484396718064  0.3312632508694385
  0.4993633404971606  0.1667493228036678  0.4983488899659931
  0.6653602559234196  0.3333677293136753  0.4988843689518314
  0.8319599463970119  0.4994147830737560  0.4983962360011275
  0.9986761410646207  0.6661475794403867  0.4978841893700521
  0.6667929485829659  0.1653761335059794  0.6651724406709103
  0.8333201706989580  0.3319222623737493  0.6651808453790222
 -0.0013156693260550  0.4988903434753106  0.6651432921902094
  0.8331181280534916  0.1655662951240076  0.8315942661292087
  0.0000422692903908  0.3322736624937180  0.8313506155851598
 -0.0002505497012410  0.1655805009035834 -0.0020755476185070
  0.1651831291029444  0.4989220942887952  0.1635179848155699
  0.3330881332521274  0.6656092265927102  0.1650342969360148
  0.4997542639399746  0.8335729444420578  0.1635324401454745
  0.6663699474052638 -0.0005295350706488  0.1645847690704563
  0.1655190282468151  0.3328840222316378  0.3318684547011631
  0.3304061621509345  0.4976914588270367  0.3283872717495232
  0.5010407287470816  0.6683773044107079  0.3284344703589139
  0.6658365705152047  0.8332229739143188  0.3318155462987373
  0.8330820475128630 -0.0005479922433034  0.3312824425179752
  0.1651860488768192  0.1645619566301372  0.4979199571632633
  0.3304062145873171  0.3294091419778674  0.4966975077946291
  0.6692923828102262  0.6683966916985226  0.4967006522551373
  0.8341837280050252  0.8335741248310424  0.4979146176826686
 -0.0000476100789974 -0.0012434577369482  0.4979647755450800
  0.3331308231371257  0.1660639888645380  0.6646053786035950
  0.5011095058787579  0.3293853139534637  0.6673883380074773
  0.6693560635585307  0.4976758705200265  0.6674234401964666
  0.8326833329785898  0.6656282165274191  0.6646184684430660
 -0.0000019593004606  0.8321028268777069  0.6644869191908944
  0.4997928620975340  0.1645211361806353  0.8325693256463721
  0.6658677627390902  0.3328435107917812  0.8322362543518289
  0.8342068103801118  0.4989081445646900  0.8325795705975919
  0.0000059195151111  0.6654836752696058  0.8310953718703910
  0.6663592991477214  0.1656206214108463 -0.0015733266481924
  0.8330732083252329  0.3323341765169571 -0.0015638006285028
 -0.0000395593129008  0.4989633791138631 -0.0022416458242313
  0.1666034598643890  0.8320947120795493  0.1646821906463198
  0.3329601869297715 -0.0011402675735850  0.1645032587914109
  0.1667595031134103  0.6647230285347207  0.3321145566241680
  0.3339626398568880  0.8319547370892224  0.3321024908607992
  0.4996545704815428  0.0015864221041426  0.3302651617866721
  0.1549717661244989  0.4980355475561108  0.4970483534319810
  0.3398387083382558  0.6588854030394218  0.4982019883298590
  0.5006877644465967  0.8437317668323872  0.4970352978291313
  0.6674180443155772  0.0015856486982007  0.4980045137198144
  0.1667703068439774  0.3331065738051653  0.6637248756364846
  0.3398312522720736  0.4991638100205156  0.6579611227171110
  0.4995134790595157  0.6588643341381768  0.6579067254715989
  0.6655765796384755  0.8319555936967322  0.6637219977131370
  0.8331865615051093 -0.0011769302781716  0.6647205529061736
  0.1666149657412700  0.1656855621500952  0.8310873858610716
  0.3340084925780369  0.3331055552590939  0.8309300617577225
  0.5007200305726185  0.4980813653071697  0.8427606629447392
  0.6655874314378614  0.6647615182210738  0.8309656531775371
  0.8330186452483856  0.8321045490272632  0.8310969938188609
 -0.0000635033376826 -0.0012342298500015  0.8312192407311244
  0.3329698424883756  0.1655328095788194 -0.0021854337588208
  0.4996838042892378  0.3313075705785751  0.0005777024783118
  0.6674154826711860  0.4990426490475076  0.0006133583289935
  0.8331789564460713  0.6657119787000395  0.9978288094195357
 -0.0000547679021816  0.8322227919006797 -0.0022360932615343
  0.1663571446499365 -0.0013128240086025  0.3312812460376475
  0.1677820636238473  0.8309530717646056  0.4979822675658482
  0.3326030680502942  0.0000604805273819  0.4978687716117990
  0.1665475532114788  0.6647373053330072  0.6636733319871825
  0.3340325077654716  0.8321996815494175  0.6636907682937985
  0.4998236889306140  0.0000528569887578  0.6651128761355126
  0.1677890730720930  0.4989867496050669  0.8299292273301269
  0.3340066891834486  0.6647289527173994  0.8311964542974323
  0.4997205961637343  0.8309986794755864  0.8299330740093018
  0.6664059807951405 -0.0013292654429246  0.8313438822814344
  0.1663370755348057  0.3323082509099849  0.9976331183156021
  0.3326117603653720  0.4988784554399621 -0.0009821792735539
  0.4998066359335609  0.6661417141470189 -0.0009632432611185
  0.6663786157155688  0.8323727118836369 -0.0023516800479864
  0.8331500165427593 -0.0010457504484742  0.9979310443331014
  0.1666374592992651  0.9987103442001013  0.6644703133195908
  0.1669910299514641  0.8317482664654928  0.8307362985321521
  0.3332210468985149 -0.0012789017565229  0.8310693902148756
  0.1666023919433993  0.6654736714665015 -0.0023012275640058
  0.3332140118641086  0.8320961578255387 -0.0022870625854084
  0.4996818752290848 -0.0012220150009786  0.9977648706425446
  0.1664699043338798 -0.0012083776022486 -0.0022372641959718
 
  0.00000000E+00  0.00000000E+00  0.00000000E+00
  0.00000000E+00  0.00000000E+00  0.00000000E+00
  0.00000000E+00  0.00000000E+00  0.00000000E+00
  0.00000000E+00  0.00000000E+00  0.00000000E+00
  0.00000000E+00  0.00000000E+00  0.00000000E+00
  0.00000000E+00  0.00000000E+00  0.00000000E+00
  0.00000000E+00  0.00000000E+00  0.00000000E+00
  0.00000000E+00  0.00000000E+00  0.00000000E+00
  0.00000000E+00  0.00000000E+00  0.00000000E+00
  0.00000000E+00  0.00000000E+00  0.00000000E+00
  0.00000000E+00  0.00000000E+00  0.00000000E+00
  0.00000000E+00  0.00000000E+00  0.00000000E+00
  0.00000000E+00  0.00000000E+00  0.00000000E+00
  0.00000000E+00  0.00000000E+00  0.00000000E+00
  0.00000000E+00  0.00000000E+00  0.00000000E+00
  0.00000000E+00  0.00000000E+00  0.00000000E+00
  0.00000000E+00  0.00000000E+00  0.00000000E+00
  0.00000000E+00  0.00000000E+00  0.00000000E+00
  0.00000000E+00  0.00000000E+00  0.00000000E+00
  0.00000000E+00  0.00000000E+00  0.00000000E+00
  0.00000000E+00  0.00000000E+00  0.00000000E+00
  0.00000000E+00  0.00000000E+00  0.00000000E+00
  0.00000000E+00  0.00000000E+00  0.00000000E+00
  0.00000000E+00  0.00000000E+00  0.00000000E+00
  0.00000000E+00  0.00000000E+00  0.00000000E+00
  0.00000000E+00  0.00000000E+00  0.00000000E+00
  0.00000000E+00  0.00000000E+00  0.00000000E+00
  0.00000000E+00  0.00000000E+00  0.00000000E+00
  0.00000000E+00  0.00000000E+00  0.00000000E+00
  0.00000000E+00  0.00000000E+00  0.00000000E+00
  0.00000000E+00  0.00000000E+00  0.00000000E+00
  0.00000000E+00  0.00000000E+00  0.00000000E+00
  0.00000000E+00  0.00000000E+00  0.00000000E+00
  0.00000000E+00  0.00000000E+00  0.00000000E+00
  0.00000000E+00  0.00000000E+00  0.00000000E+00
  0.00000000E+00  0.00000000E+00  0.00000000E+00
  0.00000000E+00  0.00000000E+00  0.00000000E+00
  0.00000000E+00  0.00000000E+00  0.00000000E+00
  0.00000000E+00  0.00000000E+00  0.00000000E+00
  0.00000000E+00  0.00000000E+00  0.00000000E+00
  0.00000000E+00  0.00000000E+00  0.00000000E+00
  0.00000000E+00  0.00000000E+00  0.00000000E+00
  0.00000000E+00  0.00000000E+00  0.00000000E+00
  0.00000000E+00  0.00000000E+00  0.00000000E+00
  0.00000000E+00  0.00000000E+00  0.00000000E+00
  0.00000000E+00  0.00000000E+00  0.00000000E+00
  0.00000000E+00  0.00000000E+00  0.00000000E+00
  0.00000000E+00  0.00000000E+00  0.00000000E+00
  0.00000000E+00  0.00000000E+00  0.00000000E+00
  0.00000000E+00  0.00000000E+00  0.00000000E+00
  0.00000000E+00  0.00000000E+00  0.00000000E+00
  0.00000000E+00  0.00000000E+00  0.00000000E+00
  0.00000000E+00  0.00000000E+00  0.00000000E+00
  0.00000000E+00  0.00000000E+00  0.00000000E+00
  0.00000000E+00  0.00000000E+00  0.00000000E+00
  0.00000000E+00  0.00000000E+00  0.00000000E+00
  0.00000000E+00  0.00000000E+00  0.00000000E+00
  0.00000000E+00  0.00000000E+00  0.00000000E+00
  0.00000000E+00  0.00000000E+00  0.00000000E+00
  0.00000000E+00  0.00000000E+00  0.00000000E+00
  0.00000000E+00  0.00000000E+00  0.00000000E+00
  0.00000000E+00  0.00000000E+00  0.00000000E+00
  0.00000000E+00  0.00000000E+00  0.00000000E+00
  0.00000000E+00  0.00000000E+00  0.00000000E+00
  0.00000000E+00  0.00000000E+00  0.00000000E+00
  0.00000000E+00  0.00000000E+00  0.00000000E+00
  0.00000000E+00  0.00000000E+00  0.00000000E+00
  0.00000000E+00  0.00000000E+00  0.00000000E+00
  0.00000000E+00  0.00000000E+00  0.00000000E+00
  0.00000000E+00  0.00000000E+00  0.00000000E+00
  0.00000000E+00  0.00000000E+00  0.00000000E+00
  0.00000000E+00  0.00000000E+00  0.00000000E+00
  0.00000000E+00  0.00000000E+00  0.00000000E+00
  0.00000000E+00  0.00000000E+00  0.00000000E+00
  0.00000000E+00  0.00000000E+00  0.00000000E+00
  0.00000000E+00  0.00000000E+00  0.00000000E+00
  0.00000000E+00  0.00000000E+00  0.00000000E+00
  0.00000000E+00  0.00000000E+00  0.00000000E+00
  0.00000000E+00  0.00000000E+00  0.00000000E+00
  0.00000000E+00  0.00000000E+00  0.00000000E+00
  0.00000000E+00  0.00000000E+00  0.00000000E+00
  0.00000000E+00  0.00000000E+00  0.00000000E+00
  0.00000000E+00  0.00000000E+00  0.00000000E+00
  0.00000000E+00  0.00000000E+00  0.00000000E+00
  0.00000000E+00  0.00000000E+00  0.00000000E+00
  0.00000000E+00  0.00000000E+00  0.00000000E+00
  0.00000000E+00  0.00000000E+00  0.00000000E+00
  0.00000000E+00  0.00000000E+00  0.00000000E+00
  0.00000000E+00  0.00000000E+00  0.00000000E+00
  0.00000000E+00  0.00000000E+00  0.00000000E+00
  0.00000000E+00  0.00000000E+00  0.00000000E+00
  0.00000000E+00  0.00000000E+00  0.00000000E+00
  0.00000000E+00  0.00000000E+00  0.00000000E+00
  0.00000000E+00  0.00000000E+00  0.00000000E+00
  0.00000000E+00  0.00000000E+00  0.00000000E+00
  0.00000000E+00  0.00000000E+00  0.00000000E+00
  0.00000000E+00  0.00000000E+00  0.00000000E+00
  0.00000000E+00  0.00000000E+00  0.00000000E+00
  0.00000000E+00  0.00000000E+00  0.00000000E+00
  0.00000000E+00  0.00000000E+00  0.00000000E+00
  0.00000000E+00  0.00000000E+00  0.00000000E+00
  0.00000000E+00  0.00000000E+00  0.00000000E+00
  0.00000000E+00  0.00000000E+00  0.00000000E+00
  0.00000000E+00  0.00000000E+00  0.00000000E+00
  0.00000000E+00  0.00000000E+00  0.00000000E+00
  0.00000000E+00  0.00000000E+00  0.00000000E+00
  0.00000000E+00  0.00000000E+00  0.00000000E+00
  0.00000000E+00  0.00000000E+00  0.00000000E+00
  0.00000000E+00  0.00000000E+00  0.00000000E+00
  0.00000000E+00  0.00000000E+00  0.00000000E+00
  0.00000000E+00  0.00000000E+00  0.00000000E+00
  0.00000000E+00  0.00000000E+00  0.00000000E+00
  0.00000000E+00  0.00000000E+00  0.00000000E+00
  0.00000000E+00  0.00000000E+00  0.00000000E+00
  0.00000000E+00  0.00000000E+00  0.00000000E+00
  0.00000000E+00  0.00000000E+00  0.00000000E+00
  0.00000000E+00  0.00000000E+00  0.00000000E+00
  0.00000000E+00  0.00000000E+00  0.00000000E+00
  0.00000000E+00  0.00000000E+00  0.00000000E+00
  0.00000000E+00  0.00000000E+00  0.00000000E+00
  0.00000000E+00  0.00000000E+00  0.00000000E+00
  0.00000000E+00  0.00000000E+00  0.00000000E+00
  0.00000000E+00  0.00000000E+00  0.00000000E+00
  0.00000000E+00  0.00000000E+00  0.00000000E+00
  0.00000000E+00  0.00000000E+00  0.00000000E+00
  0.00000000E+00  0.00000000E+00  0.00000000E+00
  0.00000000E+00  0.00000000E+00  0.00000000E+00
  0.00000000E+00  0.00000000E+00  0.00000000E+00
  0.00000000E+00  0.00000000E+00  0.00000000E+00
  0.00000000E+00  0.00000000E+00  0.00000000E+00
  0.00000000E+00  0.00000000E+00  0.00000000E+00
  0.00000000E+00  0.00000000E+00  0.00000000E+00
  0.00000000E+00  0.00000000E+00  0.00000000E+00
  0.00000000E+00  0.00000000E+00  0.00000000E+00
  0.00000000E+00  0.00000000E+00  0.00000000E+00
  0.00000000E+00  0.00000000E+00  0.00000000E+00
  0.00000000E+00  0.00000000E+00  0.00000000E+00
  0.00000000E+00  0.00000000E+00  0.00000000E+00
  0.00000000E+00  0.00000000E+00  0.00000000E+00
  0.00000000E+00  0.00000000E+00  0.00000000E+00
  0.00000000E+00  0.00000000E+00  0.00000000E+00
  0.00000000E+00  0.00000000E+00  0.00000000E+00
  0.00000000E+00  0.00000000E+00  0.00000000E+00
  0.00000000E+00  0.00000000E+00  0.00000000E+00
  0.00000000E+00  0.00000000E+00  0.00000000E+00
  0.00000000E+00  0.00000000E+00  0.00000000E+00
  0.00000000E+00  0.00000000E+00  0.00000000E+00
  0.00000000E+00  0.00000000E+00  0.00000000E+00
  0.00000000E+00  0.00000000E+00  0.00000000E+00
  0.00000000E+00  0.00000000E+00  0.00000000E+00
  0.00000000E+00  0.00000000E+00  0.00000000E+00
  0.00000000E+00  0.00000000E+00  0.00000000E+00
  0.00000000E+00  0.00000000E+00  0.00000000E+00
  0.00000000E+00  0.00000000E+00  0.00000000E+00
  0.00000000E+00  0.00000000E+00  0.00000000E+00
  0.00000000E+00  0.00000000E+00  0.00000000E+00
  0.00000000E+00  0.00000000E+00  0.00000000E+00
  0.00000000E+00  0.00000000E+00  0.00000000E+00
  0.00000000E+00  0.00000000E+00  0.00000000E+00
  0.00000000E+00  0.00000000E+00  0.00000000E+00
  0.00000000E+00  0.00000000E+00  0.00000000E+00
  0.00000000E+00  0.00000000E+00  0.00000000E+00
  0.00000000E+00  0.00000000E+00  0.00000000E+00
  0.00000000E+00  0.00000000E+00  0.00000000E+00
  0.00000000E+00  0.00000000E+00  0.00000000E+00
  0.00000000E+00  0.00000000E+00  0.00000000E+00
  0.00000000E+00  0.00000000E+00  0.00000000E+00
  0.00000000E+00  0.00000000E+00  0.00000000E+00
  0.00000000E+00  0.00000000E+00  0.00000000E+00
  0.00000000E+00  0.00000000E+00  0.00000000E+00
  0.00000000E+00  0.00000000E+00  0.00000000E+00
  0.00000000E+00  0.00000000E+00  0.00000000E+00
  0.00000000E+00  0.00000000E+00  0.00000000E+00
  0.00000000E+00  0.00000000E+00  0.00000000E+00
  0.00000000E+00  0.00000000E+00  0.00000000E+00
  0.00000000E+00  0.00000000E+00  0.00000000E+00
  0.00000000E+00  0.00000000E+00  0.00000000E+00
  0.00000000E+00  0.00000000E+00  0.00000000E+00
  0.00000000E+00  0.00000000E+00  0.00000000E+00
  0.00000000E+00  0.00000000E+00  0.00000000E+00
  0.00000000E+00  0.00000000E+00  0.00000000E+00
  0.00000000E+00  0.00000000E+00  0.00000000E+00
  0.00000000E+00  0.00000000E+00  0.00000000E+00
  0.00000000E+00  0.00000000E+00  0.00000000E+00
  0.00000000E+00  0.00000000E+00  0.00000000E+00
  0.00000000E+00  0.00000000E+00  0.00000000E+00
  0.00000000E+00  0.00000000E+00  0.00000000E+00
  0.00000000E+00  0.00000000E+00  0.00000000E+00
  0.00000000E+00  0.00000000E+00  0.00000000E+00
  0.00000000E+00  0.00000000E+00  0.00000000E+00
  0.00000000E+00  0.00000000E+00  0.00000000E+00
  0.00000000E+00  0.00000000E+00  0.00000000E+00
  0.00000000E+00  0.00000000E+00  0.00000000E+00
  0.00000000E+00  0.00000000E+00  0.00000000E+00
  0.00000000E+00  0.00000000E+00  0.00000000E+00
  0.00000000E+00  0.00000000E+00  0.00000000E+00
  0.00000000E+00  0.00000000E+00  0.00000000E+00
  0.00000000E+00  0.00000000E+00  0.00000000E+00
  0.00000000E+00  0.00000000E+00  0.00000000E+00
  0.00000000E+00  0.00000000E+00  0.00000000E+00
  0.00000000E+00  0.00000000E+00  0.00000000E+00
  0.00000000E+00  0.00000000E+00  0.00000000E+00
  0.00000000E+00  0.00000000E+00  0.00000000E+00
  0.00000000E+00  0.00000000E+00  0.00000000E+00
  0.00000000E+00  0.00000000E+00  0.00000000E+00
  0.00000000E+00  0.00000000E+00  0.00000000E+00
  0.00000000E+00  0.00000000E+00  0.00000000E+00
  0.00000000E+00  0.00000000E+00  0.00000000E+00
  0.00000000E+00  0.00000000E+00  0.00000000E+00
  0.00000000E+00  0.00000000E+00  0.00000000E+00
  0.00000000E+00  0.00000000E+00  0.00000000E+00
  0.00000000E+00  0.00000000E+00  0.00000000E+00
  0.00000000E+00  0.00000000E+00  0.00000000E+00
  0.00000000E+00  0.00000000E+00  0.00000000E+00
  0.00000000E+00  0.00000000E+00  0.00000000E+00
  0.00000000E+00  0.00000000E+00  0.00000000E+00
