40.0% N(Distort)=4 ~[0.5,0.5,0.5]
1.0
  12.5998379999999983    0.0000000000000004    0.0000000000000004
   0.0000000000000004   12.5998379999999983   -0.0000000000000004
  -0.0000000000000004   -0.0000000000000004   12.5998379999999983
Mg O
109 107
direct
   0.6719359826099596    0.0164400566803896   -0.0025562813959436 Mg
   0.8333333333333333    0.1666666666666667    1.0000000000000000 Mg
   0.8356993213461827    1.0223522002184962    0.1641323011046227 Mg
   0.3224763702131981    0.0044599364366762   -0.0124259056236310 Mg
   0.4683882807349408    0.1945445291202825   -0.0305159411567925 Mg
   0.6700452871194704    0.2991563222813016   -0.0172120397832292 Mg
   0.8039052536122827    0.5075978931896779    1.0060087239430704 Mg
   0.4829288323089322    0.0313671915667327    0.1627357747048522 Mg
   0.6680970459318322    0.1657521328434063    0.1714409922644628 Mg
   0.8433038973606903    0.3205099049622319    0.1758011922340745 Mg
   0.6745998374736627    0.0008994494499590    0.3346483595807478 Mg
   0.8383686394545844    0.1813625688851739    0.3710873707308170 Mg
   0.8362978935485089    1.0085628074114872    0.5044069720316411 Mg
   0.0173919777699045    0.0222577906257076   -0.0005867305602654 Mg
   0.2015836957490763    0.1880996330958855   -0.0206798160971628 Mg
   0.3248231564244365    0.3453588532006672    0.0030440202853086 Mg
   0.5112571327581900    0.5181605276407327    0.0131618310376236 Mg
   0.6730465471091865    0.6725268798914278    0.0079636060693683 Mg
   0.8332544328693899    0.8252211173333569   -0.0139853859149301 Mg
   0.1793544962457544    0.0110085976268606    0.1804255667080973 Mg
   0.3288271589732750    0.1631413257144635    0.1726356001884035 Mg
   0.4998486242407607    0.3059564743240926    0.1495969865155072 Mg
   0.6621511944906979    0.5018309242515305    0.1736374350888839 Mg
   0.8272842720797275    0.6856559480836389    0.1517167160845820 Mg
   0.3138287276070156   -0.0134625653695265    0.3426940118948730 Mg
   0.4842616916334585    0.1714511141372073    0.3211882827848898 Mg
   0.6715127125335044    0.3412939386132977    0.3478926338073569 Mg
   0.8267885528915061    0.4823362933399524    0.3191588111287105 Mg
   0.4898355357204328    0.0045674904106699    0.4964424818080121 Mg
   0.6684097652717587    0.1828038679055971    0.5117907363820599 Mg
   0.8108566129444416    0.3289257257563620    0.4943018606192974 Mg
   0.6944477123565063   -0.0109700074408943    0.6726587860516402 Mg
   0.8702445561015519    0.1667423729817158    0.6417182127253579 Mg
   0.8414429628833022    0.0020475909213646    0.8267815954021939 Mg
   0.0077911761063580    0.3340042734030238    1.0082010710985725 Mg
   0.1560703714432414    0.4720579160684921    0.0227889049130636 Mg
   0.3594235765852130    0.6669446475079841    1.0085518092966930 Mg
   0.4921513793632283    0.8393338422487233    0.0014845467117730 Mg
   0.0040849426661529    0.1839426764557721    0.1851551064566199 Mg
   0.1718761730772104    0.3265970547747437    0.1716575565494780 Mg
   0.3266659064603057    0.4986479525096391    0.1809222622183328 Mg
   0.4823350486051717    0.6716354168229823    0.1377437661434048 Mg
   0.6639741349870326    0.8303552161329294    0.1490883337251225 Mg
   1.0180398301179416    0.9973111001781670    0.3393016524598224 Mg
   0.1770586031541706    0.1859398535776294    0.3217675851988977 Mg
   0.3300248483057041    0.3537525485070541    0.3308432001478190 Mg
   0.4993092781621052    0.4923263200008698    0.3292659753739309 Mg
   0.6571827071018262    0.6830894602624320    0.3428803774141652 Mg
   0.8413472294617516    0.8048907614652547    0.3509072435853736 Mg
   0.1933253489979692   -0.0043934640115622    0.5091911859369235 Mg
   0.3252408646117803    0.1943666058757872    0.5041334609808326 Mg
   0.5008951249479888    0.3480733737107004    0.5080036990354322 Mg
   0.6569324815182362    0.5043134572442307    0.5033394328892956 Mg
   0.8340406353444100    0.6467888657744719    0.4899186733208621 Mg
   0.3297956424356056    1.0194006828891253    0.6366071927941050 Mg
   0.5015551237325958    0.1769641662077084    0.6674287931622278 Mg
   0.6757692057653371    0.3346777786593365    0.6649717184138575 Mg
   0.8499528442126087    0.5035336966610896    0.6626612307206120 Mg
   0.5103882350826440    0.0004916304976339    0.8086669500933090 Mg
   0.6913391775986911    0.1523220077975649    0.8249002292510109 Mg
   0.8209475064285787    0.3198043219008854    0.8370888797924597 Mg
   0.0041459754829497    0.6677219914094606    1.0017291181223364 Mg
   0.1608188472386943    0.8304378191263420    0.0180057734982159 Mg
  -0.0089439266814768    0.5086269161348704    0.1716708958309844 Mg
   0.1689926048885174    0.6432412087605105    0.1773916867464423 Mg
   0.3187884512830937    0.8334239203885810    0.1627113738382361 Mg
   0.0281162246923243    0.3630967398985710    0.3398590637450229 Mg
   0.1803595085240238    0.4856256423277813    0.3201942721745532 Mg
   0.3541205148799467    0.6713982070034628    0.3392444934941777 Mg
   0.4950613038571965    0.8334301322838186    0.3353725799194855 Mg
   0.0015558776650069    0.1578533809040061    0.4895948019103925 Mg
   0.1734729516159673    0.3532081082471356    0.4729621394018638 Mg
   0.3264422053035390    0.4918464629963021    0.4986005927853397 Mg
   0.5051151106442927    0.6669595940588045    0.5030461116338344 Mg
   0.6654319567835302    0.8190493272457957    0.4813783591643903 Mg
   1.0256075350791196    1.0076309132346994    0.6580641316213642 Mg
   0.1555436831577452    0.1576055221182177    0.6464778702288797 Mg
   0.3282816222449326    0.3427187804329703    0.6888107293622704 Mg
   0.4867628122902632    0.5084598211272111    0.6782924145859217 Mg
   0.6616185874855282    0.6639429204719020    0.6736420627265832 Mg
   0.8198239576581793    0.8455671235098990    0.6864446109075591 Mg
   0.1356431373845665   -0.0001039986879625    0.8307322548108454 Mg
   0.3263028263942707    0.1560577287241344    0.8536932827546374 Mg
   0.4903758329735597    0.3129845039781415    0.8280079322588033 Mg
   0.6776176637149647    0.4851142516067272    0.8248087186134754 Mg
   0.8432728092347195    0.6402586934292830    0.8358350813991211 Mg
   1.0009024280140746    0.8349771689058364    0.1590362894858969 Mg
   0.0178012309738179    0.6344717563646993    0.3438563334890067 Mg
   0.1644399219177941    0.8525080791900903    0.3226022395831011 Mg
  -0.0020585796334341    0.5251435569989580    0.5091173069167199 Mg
   0.1615593847536994    0.6594574412890513    0.4773833547276061 Mg
   0.3389424986160177    0.8047862153533337    0.5102844594454029 Mg
   0.9900613166464098    0.3407258175615897    0.6697361084797034 Mg
   0.1616481321335118    0.4787771986881725    0.6554880401146053 Mg
   0.3170257970022567    0.6501087269594205    0.6800196383140878 Mg
   0.5075817181964575    0.8093765000678906    0.6481039482801095 Mg
  -0.0032727825963562    0.1469427852935284    0.8606717176970117 Mg
   0.1675543351587450    0.3253608134652977    0.8130931789089888 Mg
   0.3246287978686815    0.5221518274728943    0.8121360737507709 Mg
   0.4955595687316237    0.6541088987951146    0.8237008572643393 Mg
   0.6592348821771193    0.8496609247942011    0.8139942423836424 Mg
   1.0001680443897656    0.8267335376012196    0.5070803488362724 Mg
  -0.0069321894330366    0.6525620930668798    0.6671375538717337 Mg
   0.1591921916652108    0.8189425248342216    0.6462017668923741 Mg
  -0.0018194110719525    0.4671644506865091    0.8165089825925859 Mg
   0.1798453558495267    0.6781404023816917    0.8302585255634245 Mg
   0.3489892432361608    0.8360749747756154    0.8089309494767332 Mg
   0.0158994438042966    0.8472472687500455    0.8544692016854393 Mg
   0.4709653913846038    0.4989521375632975    0.5182321937541479 Mg
   0.8333333333333333    0.1666666666666667    0.2333363333719053 O
   0.0074048436028965    0.3332514754369713    0.1397840420675614 O
   0.0112840938633576    0.1505884902809572    0.3440665450754511 O
   0.4842172968613190    0.1665132494762316    0.1397316964440860 O
   0.6678655782537498    0.3418174314672516    0.1544015667992156 O
   0.8464482517358122    0.5073705695571644    0.1852253361079760 O
  -0.0214075992995417    0.6508513660441856    0.1535842421563362 O
   0.6575541853615727    0.1550455354829076    0.3099328540260696 O
   0.8184671748597784    0.3452829863120572    0.3247083959625655 O
  -0.0099775276755428    0.5019670605838643    0.3213099343522671 O
   0.8394040880108634    0.1881582745797758    0.5084762952988570 O
   0.0333238402009356    0.3202316703806871    0.4903173689016194 O
   0.0119815305025416    0.1913275330378361    0.7065245883190316 O
   0.1688531030369937    0.1656052519447359    0.1578625553462908 O
   0.3483880257404133    0.3238589410827362    0.1576009446668301 O
   0.5156581488665216    0.5327878409658237    0.1688066152928584 O
   0.6657574569041179    0.6492217360793190    0.1550262159360948 O
   0.8092117367991173    0.8205998278376322    0.1565472030636591 O
  -0.0117427100657200   -0.0005489840516158    0.1632637902974471 O
   0.3440381215617653    0.1465270473387084    0.3397903008455324 O
   0.5073633181670720    0.3409491745848857    0.3327681511795590 O
   0.6713517571302924    0.4893803112072929    0.3399442750592089 O
   0.7998718222528722    0.6694249903132150    0.3179813214193386 O
  -0.0075132022003554    0.8366828762029410    0.3275767091638752 O
   0.5118318352208108    0.1763953803415214    0.5002507732845826 O
   0.6349306928903647    0.3148188232500901    0.4749114731260620 O
   0.8700505400152171    0.4887785225673613    0.4808505987511816 O
  -0.0006962046443603    0.6693944138377577    0.4789582745433497 O
   0.6796374945172159    0.1778994059991070    0.6641888262279458 O
   0.8366394146723740    0.3171243767555517    0.6863374657138172 O
  -0.0018079231811383    0.4901422044610419    0.6474254035018705 O
   0.8333333333333333    0.1666666666666667    0.7666636666280948 O
   0.0197866911448603    0.3303102827507410    0.8399772870475389 O
   0.0666696667052386    0.1666666666666667   -0.0000000000000000 O
   0.1450146306944211    0.4668222346852019    0.1660313300963552 O
   0.3105854060007467    0.6504906690824899    0.1556987613502041 O
   0.4537203963911227    0.8676397985244931    0.1542108899486499 O
   0.6696406959757504   -0.0059630636534784    0.1616495230259228 O
   0.1815015051909325    0.3380323468824613    0.3336453607302121 O
   0.3238128001561899    0.5257683952714439    0.3589538319848588 O
   0.4982317900651703    0.6672301289678170    0.3370778149128683 O
   0.6291110769603223    0.8278905696356791    0.3558465354528322 O
   0.8675157684547256    0.0102163332173069    0.3472065915985104 O
   0.1953857832365059    0.1745012655373609    0.4911334392094637 O
   0.3311157043405892    0.3357581545562285    0.5022068733387736 O
   0.6768597665373686    0.6532431687435362    0.5199903176881477 O
   0.8366310805659720    0.8358537559633024    0.4971582740843152 O
  -0.0071792043608537   -0.0203026725351390    0.4897252820519921 O
   0.3219654746426779    0.1541326376843413    0.6480174523035218 O
   0.4856026894195338    0.3447861200974892    0.6646687730178988 O
   0.6837794848612414    0.4992397498946622    0.6691684361703990 O
   0.8183288590906124    0.6709314539408486    0.6663688011340216 O
   0.0029239439111295    0.8420409301704802    0.6671612425412202 O
   0.4974645780708911    0.1484637324861258    0.8330157719455036 O
   0.6717725080336225    0.3392865468629351    0.8202486180636162 O
   0.8490432150981939    0.4715801966263335    0.7944912723026151 O
  -0.0180997193278014    0.6501493760708204    0.8569897900466427 O
   0.5999969999614281    0.1666666666666667    0.0000000000000000 O
   0.8452364934101253    0.3154134188647040    0.0167701937272131 O
   0.0149052600512340    0.4776385213345333   -0.0007933170552826 O
   0.1775249818507454    0.8089040857402059    0.1795144591290203 O
   0.3396796110613255    0.0100633677696708    0.1284576684591415 O
   0.1828718826597977    0.6531600645566069    0.3174916386267559 O
   0.2892800920290851    0.8425009958826494    0.3019291598599443 O
   0.5160296498128717   -0.0140947351252416    0.3220987399519993 O
   0.1565571972146306    0.5012856128518706    0.5093909191975313 O
   0.3197133045782636    0.6691036877165806    0.5117649236228167 O
   0.4888700069149138    0.8356431030782779    0.5067096255633139 O
   0.6792152433294278   -0.0040847341882808    0.4873680535688963 O
   0.1735344557086037    0.3155216339833789    0.6423236936545349 O
   0.3127991159956666    0.4997501024366266    0.6753033072116985 O
   0.4885440170639653    0.6546685935526487    0.6529488911407568 O
   0.6693308335870961    0.8333599279634265    0.6654170151580109 O
   0.8214754456137852    0.0227150279475676    0.6514269687266875 O
   0.1673090161060287    0.1528608428505449    0.8374106741671025 O
   0.3288203383328569    0.3304589501752563    0.8658197104402959 O
   0.4631770751572451    0.4929671124993687    0.8328523055896514 O
   0.6672719669347863    0.6590418227151209    0.8369648476772390 O
   0.8147259536775362    0.7848454473158083    0.8229422936621795 O
  -0.0086031847976500    0.0091145434765140    0.8566618151955377 O
   0.3320211372978160    0.1420312817433645   -0.0025925752014055 O
   0.4786492698421504    0.3519750501953698    0.0022235378608798 O
   0.6713121852681123    0.4770731788583347    0.0401105853669618 O
   0.8348184342124779    0.6640681799556658   -0.0006585686477910 O
  -0.0166245903775420    0.8522081485914371    0.0162845225397237 O
   0.1530087935852031    0.0030452692898370    0.3399962810768773 O
   0.1564627863028470    0.8124222601443070    0.5075581810076834 O
   0.3210756911846144    0.0000324903106304    0.4923354282161446 O
   0.1418066106909566    0.6713262222106411    0.6324546395215042 O
   0.3483911224903887    0.8291624233792233    0.6757298140450588 O
   0.4852613497476451   -0.0274887478174097    0.6438432197905829 O
   0.1564217632436021    0.5059345438671569    0.8393173165068333 O
   0.3274363156838720    0.6610392649104000    0.8478685008513738 O
   0.5127573759403630    0.8289166012197868    0.8380656142344673 O
   0.7050075249595911    0.0106926333104709    0.8390318539680472 O
   0.1848293498171601    0.3417600794225958   -0.0198291996078251 O
   0.3387367952497454    0.5114380568705943   -0.0206262870510385 O
   0.5014651659562821    0.6654153106860224    0.0009061002682776 O
   0.6618931459437204    0.8482600919814409    0.0000855241378630 O
   0.8277571309157533    0.0065740378134822   -0.0181496118904916 O
   0.1573005513450113   -0.0057808931226082    0.6486708837845583 O
   0.1689260094276687    0.8477709273110020    0.8367041544413185 O
   0.3296571606869244    0.0207585681753509    0.8409469774813627 O
   0.1454337836049872    0.6709723861696035   -0.0161566484868471 O
   0.3425221525813896    0.8625806743050675    0.0177839139171093 O
   0.5155249696040491    0.0144881431058727   -0.0054963927194733 O
   0.1705399930612498    0.0135261592945883   -0.0048797264203032 O
