KPOINTS from doped, with reciprocal_density = 480/Å⁻³
0
Gamma
15 15 9
