Zr2
1.0
   1.6196159999999999   -2.8052570000000001    0.0000000000000000
   1.6196159999999999    2.8052570000000001    0.0000000000000000
   0.0000000000000000    0.0000000000000000    5.1722200000000003
Zr
2
direct
   0.3333330000000000    0.6666670000000000    0.2500000000000000 Zr
   0.6666670000000000    0.3333330000000000    0.7500000000000000 Zr
