Unperturbed N(Distort)=3 ~[0.5,0.5,0.5] 
   1.00000000000000     
    12.5998379999999983    0.0000000000000004    0.0000000000000004
     0.0000000000000004   12.5998379999999983   -0.0000000000000004
    -0.0000000000000004   -0.0000000000000004   12.5998379999999983
   Mg   O 
   109   107
Direct
  0.6671594955089860  0.0001719013198185 -0.0001885649050647
  0.8334925843629303  0.1665066326178953  0.0000358091936619
  0.8337239973701733  0.0003651698246335  0.1662538820429621
  0.3328404968810766 -0.0001719341820604  0.0001885804839995
  0.4999610191331640  0.1655018829872711  0.0005728466530489
  0.6671752844321968  0.3328230003852310  0.0000399670428826
  0.8344960887202306  0.5000374554553375 -0.0005367951440949
  0.5000605802183066  0.0005698165430120  0.1654771980024049
  0.6672493470717372  0.1668439060246057  0.1664822345311318
  0.8337223137734578  0.3329526531926892  0.1663301845176952
  0.6674223794433615  0.0006972701381901  0.3325984983172622
  0.8335631650196615  0.1668498591048910  0.3327992390972670
  0.8345060431776309  0.0005289434270109  0.4999427320390180
 -0.0000000069753331 -0.0000000135291680  0.0000000016880381
  0.1663020891190235  0.1663044228314273  0.0003838353279855
  0.3326255685891886  0.3326270399246021  0.0007043048007224
  0.4999999958041714  0.5000000185723174 -0.0000000863632118
  0.6673744484130212  0.6673729352791142 -0.0007042458879606
  0.8336978933242927  0.8336955510537719 -0.0003838185102076
  0.1665176834724393  0.0000483587304591  0.1664972336034668
  0.3327827684254705  0.1664869399322291  0.1668552573622113
  0.5000986399433620  0.3314829535330505  0.1647527784323592
  0.6709077155853230  0.5004629739000229  0.1626118822574748
  0.8342951929338870  0.6676707842163340  0.1656655989783782
  0.3328114436374678  0.0000391902427061  0.3328315671755622
  0.4999169760335674  0.1646928499453191  0.3314788049167093
  0.6665419722568063  0.3343632745495750  0.3335068227382650
  0.8374449382070355  0.5004912488764375  0.3290951460747094
  0.4999999948587544  0.0000000429564478  0.4999999694984362
  0.6685693134784513  0.1646755784656095  0.5001320567577862
  0.8353129050303143  0.3314383757519164  0.4999610153862055
  0.6671886209771085 -0.0000391340003510  0.6671684365817157
  0.8331848020334570  0.1664056959728005  0.6672894316924870
  0.8334823078919061 -0.0000483765077706  0.8335027721596305
 -0.0001680569740035  0.3328405418461295  0.0002259287090148
  0.1655038980040351  0.4999625293784206  0.0005368021261531
  0.3328247436460078  0.6671769795313944 -0.0000400436492810
  0.5000389733241455  0.8344981068620961 -0.0005728110643941
  0.0000144602069644  0.1665641101763967  0.1665466633332306
  0.1664531502340414  0.3328214176109583  0.1668564823634152
  0.3314295530045566  0.5001490368260501  0.1647030188486258
  0.5004340999383434  0.6709529744367146  0.1625549017244457
  0.6676362945305263  0.8343339536577350  0.1656618609330916
  0.0001849682625083  0.0002298149437545  0.3328304706743319
  0.1662842376382315  0.1663170665933047  0.3329674629002467
  0.3334532336298503  0.3334915755299723  0.3343467357927861
  0.5044291828029370  0.5045006076197522  0.3106390035367281
  0.6681607905819047  0.6682106179262751  0.3317868450510018
  0.8343152566471087  0.8343508052381019  0.3323070751801595
  0.1654939410997012 -0.0005289833581021  0.5000572799978967
  0.3290974887970685  0.1626007377801515  0.5004806882988407
  0.4955811942700835  0.3106320615669122  0.5044960476141305
  0.6893776908988204  0.5044263192673639  0.4955619714283849
  0.8374018163847413  0.6708972126805314  0.4995116446707862
  0.3325776028689347 -0.0006973538956524  0.6674015088730897
  0.4995523064496972  0.1625077755583098  0.6709485943165374
  0.6656621063770461  0.3334332728354201  0.6665588153617061
  0.8353468954851136  0.5000448312243766  0.6685683093965832
  0.4999394123508771 -0.0005698349478130  0.8345228508300357
  0.6670868255633473  0.1662534850755744  0.8337296504615854
  0.8331896003529593  0.3327030764143171  0.8335842753904633
  0.0001680435275567  0.6671594363920024 -0.0002259215586067
  0.1665074056864096  0.8334933406380917 -0.0000358207855644
  0.0005395369300539  0.5001090291979515  0.1654815010525668
  0.1668103754915848  0.6672968921882951  0.1664157278945855
  0.3329131771872587  0.8337465039208826  0.1662703469030693
  0.0000067261135882  0.3328574388115440  0.3328792180379147
  0.1646531161839020  0.4999550754987629  0.3314317129881488
  0.3343379117751208  0.6665666904833376  0.3334412465394396
  0.5004477071990295  0.8374922270458436  0.3290514098939274
 -0.0005293279908994  0.1654946254250104  0.5001057332336950
  0.1625982578802979  0.3291027909196125  0.5004882686561781
  0.3106224182138886  0.4955737905975062  0.5044381283879515
  0.5044190730905628  0.6893678077995012  0.4955041621687413
  0.6709025488152573  0.8373992803362208  0.4995192738977467
 -0.0001849830923765 -0.0002298508174826  0.6671695378985399
  0.1656847202344146  0.1656491608140218  0.6676929297862606
  0.3318392840955782  0.3317894178176791  0.6682131410653728
  0.4955711257295106  0.4954996976463840  0.6893607385169637
  0.6665472410927408  0.6665085750282225  0.6656532647028390
  0.8337158404442467  0.8336830226513927  0.6670325430965303
  0.1662759824283671 -0.0003652152219911  0.8337461241022497
  0.3323636916474308  0.1656660172473327  0.8343381546918293
  0.4995659133001755  0.3290470674681106  0.8374450324367348
  0.6685704396521914  0.4998509198411696  0.8352969829448602
  0.8335468923563860  0.6671785582969963  0.8331436191952417
  0.0003279506050183  0.8337661444912069  0.1662104586985368
  0.0006668688871397  0.6674602773660452  0.3325631939524298
  0.1668151794257150  0.8335942777332578  0.3327105909915921
  0.0000000331501851  0.4999999952021509  0.5000000006072625
  0.1646871034632557  0.6685616112331844  0.5000390925819155
  0.3314306835497443  0.8353243851150884  0.4998679815260241
 -0.0006668883911120  0.3325396988468721  0.6674368146361213
  0.1625551318878695  0.4995088521810409  0.6709048549747535
  0.3334585439344507  0.6656369105005768  0.6664932000203605
  0.5000832398929088  0.8353072571379880  0.6685212275029719
 -0.0003279710746138  0.1662338271322189  0.8337895492515426
  0.1657047907641780  0.3323292036677645  0.8343344132613517
  0.3290923397015748  0.4995370598310488  0.8373880668360695
  0.4999015780693489  0.6685172178086086  0.8352472037547780
  0.6672172440755930  0.8335130736520788  0.8331447961466883
  0.0005293307172538  0.8345053467869984  0.4998942836808158
 -0.0000066475713710  0.6671425580991968  0.6671207885201381
  0.1664368538554119  0.8331500340649270  0.6672007733368910
 -0.0005395333112592  0.4998909561316093  0.8345185127226706
  0.1662777407783995  0.6670473310363005  0.8336697213280320
  0.3327506466058518  0.8331560369348820  0.8335177466022993
 -0.0000144521599409  0.8334358639414352  0.8334533347590641
  0.5000000244587020  0.4999997891172998  0.4999996824295674
  0.8333066622040834  0.1669579723148744  0.1667260369309560
  0.0000711171222327  0.3332680829572371  0.1667320123421524
 -0.0000685460660095  0.1667225586698865  0.3332690684830739
  0.5000118536766270  0.1668415401786251  0.1668339898731589
  0.6663459104469636  0.3336576626625642  0.1665243273105185
  0.8352870651320797  0.5001892966615361  0.1647094961803942
  0.0006473579487961  0.6669965707179398  0.1663215989405348
  0.6661723433920135  0.1674491773982736  0.3338903236930936
  0.8335183630354789  0.3336644362568816  0.3337093770982025
  0.0006214944122435  0.5001437165625676  0.3322590343404881
  0.8331969265622414  0.1668004456028804  0.5000381463040511
 -0.0006030503624159  0.3322598981926676  0.5001434529025134
 -0.0006590799785483  0.1663093830128652  0.6669973370206871
  0.1667162048833274  0.1667428936876819  0.1669603231631376
  0.3338488832729039  0.3338873010475022  0.1674369547825419
  0.5005166654172817  0.5005620591672445  0.1597021135999118
  0.6673035188311884  0.6673431830454678  0.1651824395350774
  0.8337797881519012  0.8338157659168328  0.1661541632290712
  0.0001312603518851  0.0001713347214823  0.1665214131996609
  0.3336516222294942  0.1665094877076223  0.3336750402028738
  0.5000063763873962  0.3355622677769552  0.3355766007952026
  0.6722192097774958  0.5008153690555691  0.3278099986957655
  0.8347808812438050  0.6673601272960427  0.3326411118796614
  0.0006590949318630  0.8336906102255270  0.3330026634664118
  0.4994796949367885  0.1597148501004627  0.5005634808093333
  0.6644767263165466  0.3355324830119308  0.5000339455595315
  0.8402944196650508  0.5005214002558274  0.4994764708380663
  0.0006029918092312  0.6677400722140919  0.4998565525524446
  0.6663797479751290  0.1664582907278375  0.6663678535148644
  0.8325892747520757  0.3338010328976103  0.6661873588370562
 -0.0006215521650050  0.4998562464899459  0.6677409749273995
  0.8330825595159418  0.1666461028995252  0.8333492509380590
 -0.0006473430391686  0.3330034051211212  0.8336784053176473
 -0.0001126446958803  0.1665501011877130  0.0001741336220542
  0.1668041034465815  0.5000516509461000  0.1667935791656965
  0.3336112075687478  0.6663982806052368  0.1664649159567344
  0.5001539397089479  0.8353276792913217  0.1646682681512442
  0.6669408382904963  0.0006900610053253  0.1663568507153053
  0.1664761685205075  0.3336929446750058  0.3336735882664026
  0.3355181007818304  0.5000192766411649  0.3355334940881708
  0.5008005730031129  0.6722717169518203  0.3277502403128592
  0.6673137300040447  0.8348205964036775  0.3326519168819274
  0.8336457146407178  0.0006948994946828  0.3330430740327087
  0.1647131811519389  0.1647099449086691  0.5002094754494413
  0.3277835838611142  0.3277962573006702  0.5008124354933914
  0.6722166971253024  0.6722037963171823  0.4991874335098889
  0.8352868067534868  0.8352900287736830  0.4997905357622954
 -0.0000000041517598 -0.0000000035104015  0.4999999983236523
  0.3326862609337680  0.1651793752023389  0.6673481041786919
  0.4991994140102114  0.3277282518539860  0.6722497425870479
  0.6644820407681943  0.4999807245489718  0.6644665777152378
  0.8335238337050990  0.6663070412729092  0.6663264222924622
  0.0000684974774453  0.8332774259826284  0.6667309384774096
  0.4998460305927265  0.1646722813307834  0.8353317400362139
  0.6663887761234907  0.3336016988225404  0.8335351060544869
  0.8331959105575255  0.4999483298340432  0.8332064171444516
 -0.0000711657412642  0.6667318852785947  0.8332680008088313
  0.6667691160727943  0.1667023249706939  0.0000980014636436
  0.8332975088112375  0.3332247172229685 -0.0000284518097776
 -0.0000000023819176  0.4999999837863192  0.0000000039169625
  0.1669174352717175  0.8333538768736574  0.1666507615545072
  0.3332279007127201  0.0001027097109501  0.1666961914160174
  0.1674107643681597  0.6661989344083500  0.3338126623042114
  0.3336202253674203  0.8335416599239240  0.3336321422678851
  0.5001016333744088  0.0006554862321909  0.3322625123072956
  0.1597055509471207  0.4994785579296945  0.5005235521012203
  0.3355234147678250  0.6644675633801822  0.4999661932588849
  0.5005203190116051  0.8402851643182004  0.4994363471596221
  0.6677365445445557  0.0006023871512429  0.4999081058792658
  0.1652191918430276  0.3326398855386715  0.6673588671649913
  0.3277811124485464  0.4991848965056688  0.6721900056393098
  0.4999931427448771  0.6644380430312112  0.6644237088853370
  0.6663487722013676  0.8334908353022246  0.6663249749883552
  0.8333124651403853  0.0000335678773125  0.6667766355352435
  0.1662202142214426  0.1661842211101054  0.8338458404094483
  0.3326964614528446  0.3326567728790490  0.8348175613729774
  0.4994833484502073  0.4994380690654178  0.8402977831893851
  0.6661513656093210  0.6661127168478754  0.8325632194117942
  0.8332837851997632  0.8332570754360461  0.8330396841028067
 -0.0001312631945415 -0.0001713481759860  0.8334785988778600
  0.3330953471517430  0.1663960883029537  0.0006995277211951
  0.4999179434921679  0.3322806264741264  0.0006513064488237
  0.6677291491082576  0.5000723441910551 -0.0006146618244461
  0.8335995218516647  0.6669070820056995 -0.0006947789053444
  0.0001126419140069  0.8334498817707379 -0.0001741201265943
  0.1666875797788903 -0.0000335334027705  0.3332233688394793
  0.1668030670253132  0.8331995571111561  0.4999618311633783
  0.3322634351209428 -0.0006024218061096  0.5000919005268463
  0.1664816449870078  0.6663355402783085  0.6662906287894275
  0.3338277366604874  0.8325508181384945  0.6661096751268888
  0.4998983614073652 -0.0006555130772577  0.6677374730596255
  0.1647129143320210  0.4998106502591504  0.8352905209216570
  0.3336543136628766  0.6663423331546091  0.8334755191460402
  0.4999881890344661  0.8331586473698817  0.8331661613670487
  0.6667720795427845 -0.0001027324944330  0.8333038218118818
  0.1664005060992090  0.3330928889401988  0.0006948116139537
  0.3322708331095774  0.4999276148532562  0.0006146823598976
  0.5000820501712502  0.6677193761963959 -0.0006513213354837
  0.6669046477736844  0.8336039012581192 -0.0006995394340354
  0.8334498296987989  0.0001128455240280 -0.0001324289534135
  0.1663505136689127 -0.0006954218469318  0.6669563836408916
  0.1666933340181550  0.8330420243897029  0.8332739966744780
  0.3330591511248732 -0.0006900480837331  0.8336431519665545
  0.1667025153387618  0.6667752555109154  0.0000284446449915
  0.3332308595698055  0.8332976528246190 -0.0000979766315764
  0.4999999874435438  0.0000000164701054  0.0000000221208471
  0.1665501688864871 -0.0001128592639775  0.0001324380679675
 
  0.00000000E+00  0.00000000E+00  0.00000000E+00
  0.00000000E+00  0.00000000E+00  0.00000000E+00
  0.00000000E+00  0.00000000E+00  0.00000000E+00
  0.00000000E+00  0.00000000E+00  0.00000000E+00
  0.00000000E+00  0.00000000E+00  0.00000000E+00
  0.00000000E+00  0.00000000E+00  0.00000000E+00
  0.00000000E+00  0.00000000E+00  0.00000000E+00
  0.00000000E+00  0.00000000E+00  0.00000000E+00
  0.00000000E+00  0.00000000E+00  0.00000000E+00
  0.00000000E+00  0.00000000E+00  0.00000000E+00
  0.00000000E+00  0.00000000E+00  0.00000000E+00
  0.00000000E+00  0.00000000E+00  0.00000000E+00
  0.00000000E+00  0.00000000E+00  0.00000000E+00
  0.00000000E+00  0.00000000E+00  0.00000000E+00
  0.00000000E+00  0.00000000E+00  0.00000000E+00
  0.00000000E+00  0.00000000E+00  0.00000000E+00
  0.00000000E+00  0.00000000E+00  0.00000000E+00
  0.00000000E+00  0.00000000E+00  0.00000000E+00
  0.00000000E+00  0.00000000E+00  0.00000000E+00
  0.00000000E+00  0.00000000E+00  0.00000000E+00
  0.00000000E+00  0.00000000E+00  0.00000000E+00
  0.00000000E+00  0.00000000E+00  0.00000000E+00
  0.00000000E+00  0.00000000E+00  0.00000000E+00
  0.00000000E+00  0.00000000E+00  0.00000000E+00
  0.00000000E+00  0.00000000E+00  0.00000000E+00
  0.00000000E+00  0.00000000E+00  0.00000000E+00
  0.00000000E+00  0.00000000E+00  0.00000000E+00
  0.00000000E+00  0.00000000E+00  0.00000000E+00
  0.00000000E+00  0.00000000E+00  0.00000000E+00
  0.00000000E+00  0.00000000E+00  0.00000000E+00
  0.00000000E+00  0.00000000E+00  0.00000000E+00
  0.00000000E+00  0.00000000E+00  0.00000000E+00
  0.00000000E+00  0.00000000E+00  0.00000000E+00
  0.00000000E+00  0.00000000E+00  0.00000000E+00
  0.00000000E+00  0.00000000E+00  0.00000000E+00
  0.00000000E+00  0.00000000E+00  0.00000000E+00
  0.00000000E+00  0.00000000E+00  0.00000000E+00
  0.00000000E+00  0.00000000E+00  0.00000000E+00
  0.00000000E+00  0.00000000E+00  0.00000000E+00
  0.00000000E+00  0.00000000E+00  0.00000000E+00
  0.00000000E+00  0.00000000E+00  0.00000000E+00
  0.00000000E+00  0.00000000E+00  0.00000000E+00
  0.00000000E+00  0.00000000E+00  0.00000000E+00
  0.00000000E+00  0.00000000E+00  0.00000000E+00
  0.00000000E+00  0.00000000E+00  0.00000000E+00
  0.00000000E+00  0.00000000E+00  0.00000000E+00
  0.00000000E+00  0.00000000E+00  0.00000000E+00
  0.00000000E+00  0.00000000E+00  0.00000000E+00
  0.00000000E+00  0.00000000E+00  0.00000000E+00
  0.00000000E+00  0.00000000E+00  0.00000000E+00
  0.00000000E+00  0.00000000E+00  0.00000000E+00
  0.00000000E+00  0.00000000E+00  0.00000000E+00
  0.00000000E+00  0.00000000E+00  0.00000000E+00
  0.00000000E+00  0.00000000E+00  0.00000000E+00
  0.00000000E+00  0.00000000E+00  0.00000000E+00
  0.00000000E+00  0.00000000E+00  0.00000000E+00
  0.00000000E+00  0.00000000E+00  0.00000000E+00
  0.00000000E+00  0.00000000E+00  0.00000000E+00
  0.00000000E+00  0.00000000E+00  0.00000000E+00
  0.00000000E+00  0.00000000E+00  0.00000000E+00
  0.00000000E+00  0.00000000E+00  0.00000000E+00
  0.00000000E+00  0.00000000E+00  0.00000000E+00
  0.00000000E+00  0.00000000E+00  0.00000000E+00
  0.00000000E+00  0.00000000E+00  0.00000000E+00
  0.00000000E+00  0.00000000E+00  0.00000000E+00
  0.00000000E+00  0.00000000E+00  0.00000000E+00
  0.00000000E+00  0.00000000E+00  0.00000000E+00
  0.00000000E+00  0.00000000E+00  0.00000000E+00
  0.00000000E+00  0.00000000E+00  0.00000000E+00
  0.00000000E+00  0.00000000E+00  0.00000000E+00
  0.00000000E+00  0.00000000E+00  0.00000000E+00
  0.00000000E+00  0.00000000E+00  0.00000000E+00
  0.00000000E+00  0.00000000E+00  0.00000000E+00
  0.00000000E+00  0.00000000E+00  0.00000000E+00
  0.00000000E+00  0.00000000E+00  0.00000000E+00
  0.00000000E+00  0.00000000E+00  0.00000000E+00
  0.00000000E+00  0.00000000E+00  0.00000000E+00
  0.00000000E+00  0.00000000E+00  0.00000000E+00
  0.00000000E+00  0.00000000E+00  0.00000000E+00
  0.00000000E+00  0.00000000E+00  0.00000000E+00
  0.00000000E+00  0.00000000E+00  0.00000000E+00
  0.00000000E+00  0.00000000E+00  0.00000000E+00
  0.00000000E+00  0.00000000E+00  0.00000000E+00
  0.00000000E+00  0.00000000E+00  0.00000000E+00
  0.00000000E+00  0.00000000E+00  0.00000000E+00
  0.00000000E+00  0.00000000E+00  0.00000000E+00
  0.00000000E+00  0.00000000E+00  0.00000000E+00
  0.00000000E+00  0.00000000E+00  0.00000000E+00
  0.00000000E+00  0.00000000E+00  0.00000000E+00
  0.00000000E+00  0.00000000E+00  0.00000000E+00
  0.00000000E+00  0.00000000E+00  0.00000000E+00
  0.00000000E+00  0.00000000E+00  0.00000000E+00
  0.00000000E+00  0.00000000E+00  0.00000000E+00
  0.00000000E+00  0.00000000E+00  0.00000000E+00
  0.00000000E+00  0.00000000E+00  0.00000000E+00
  0.00000000E+00  0.00000000E+00  0.00000000E+00
  0.00000000E+00  0.00000000E+00  0.00000000E+00
  0.00000000E+00  0.00000000E+00  0.00000000E+00
  0.00000000E+00  0.00000000E+00  0.00000000E+00
  0.00000000E+00  0.00000000E+00  0.00000000E+00
  0.00000000E+00  0.00000000E+00  0.00000000E+00
  0.00000000E+00  0.00000000E+00  0.00000000E+00
  0.00000000E+00  0.00000000E+00  0.00000000E+00
  0.00000000E+00  0.00000000E+00  0.00000000E+00
  0.00000000E+00  0.00000000E+00  0.00000000E+00
  0.00000000E+00  0.00000000E+00  0.00000000E+00
  0.00000000E+00  0.00000000E+00  0.00000000E+00
  0.00000000E+00  0.00000000E+00  0.00000000E+00
  0.00000000E+00  0.00000000E+00  0.00000000E+00
  0.00000000E+00  0.00000000E+00  0.00000000E+00
  0.00000000E+00  0.00000000E+00  0.00000000E+00
  0.00000000E+00  0.00000000E+00  0.00000000E+00
  0.00000000E+00  0.00000000E+00  0.00000000E+00
  0.00000000E+00  0.00000000E+00  0.00000000E+00
  0.00000000E+00  0.00000000E+00  0.00000000E+00
  0.00000000E+00  0.00000000E+00  0.00000000E+00
  0.00000000E+00  0.00000000E+00  0.00000000E+00
  0.00000000E+00  0.00000000E+00  0.00000000E+00
  0.00000000E+00  0.00000000E+00  0.00000000E+00
  0.00000000E+00  0.00000000E+00  0.00000000E+00
  0.00000000E+00  0.00000000E+00  0.00000000E+00
  0.00000000E+00  0.00000000E+00  0.00000000E+00
  0.00000000E+00  0.00000000E+00  0.00000000E+00
  0.00000000E+00  0.00000000E+00  0.00000000E+00
  0.00000000E+00  0.00000000E+00  0.00000000E+00
  0.00000000E+00  0.00000000E+00  0.00000000E+00
  0.00000000E+00  0.00000000E+00  0.00000000E+00
  0.00000000E+00  0.00000000E+00  0.00000000E+00
  0.00000000E+00  0.00000000E+00  0.00000000E+00
  0.00000000E+00  0.00000000E+00  0.00000000E+00
  0.00000000E+00  0.00000000E+00  0.00000000E+00
  0.00000000E+00  0.00000000E+00  0.00000000E+00
  0.00000000E+00  0.00000000E+00  0.00000000E+00
  0.00000000E+00  0.00000000E+00  0.00000000E+00
  0.00000000E+00  0.00000000E+00  0.00000000E+00
  0.00000000E+00  0.00000000E+00  0.00000000E+00
  0.00000000E+00  0.00000000E+00  0.00000000E+00
  0.00000000E+00  0.00000000E+00  0.00000000E+00
  0.00000000E+00  0.00000000E+00  0.00000000E+00
  0.00000000E+00  0.00000000E+00  0.00000000E+00
  0.00000000E+00  0.00000000E+00  0.00000000E+00
  0.00000000E+00  0.00000000E+00  0.00000000E+00
  0.00000000E+00  0.00000000E+00  0.00000000E+00
  0.00000000E+00  0.00000000E+00  0.00000000E+00
  0.00000000E+00  0.00000000E+00  0.00000000E+00
  0.00000000E+00  0.00000000E+00  0.00000000E+00
  0.00000000E+00  0.00000000E+00  0.00000000E+00
  0.00000000E+00  0.00000000E+00  0.00000000E+00
  0.00000000E+00  0.00000000E+00  0.00000000E+00
  0.00000000E+00  0.00000000E+00  0.00000000E+00
  0.00000000E+00  0.00000000E+00  0.00000000E+00
  0.00000000E+00  0.00000000E+00  0.00000000E+00
  0.00000000E+00  0.00000000E+00  0.00000000E+00
  0.00000000E+00  0.00000000E+00  0.00000000E+00
  0.00000000E+00  0.00000000E+00  0.00000000E+00
  0.00000000E+00  0.00000000E+00  0.00000000E+00
  0.00000000E+00  0.00000000E+00  0.00000000E+00
  0.00000000E+00  0.00000000E+00  0.00000000E+00
  0.00000000E+00  0.00000000E+00  0.00000000E+00
  0.00000000E+00  0.00000000E+00  0.00000000E+00
  0.00000000E+00  0.00000000E+00  0.00000000E+00
  0.00000000E+00  0.00000000E+00  0.00000000E+00
  0.00000000E+00  0.00000000E+00  0.00000000E+00
  0.00000000E+00  0.00000000E+00  0.00000000E+00
  0.00000000E+00  0.00000000E+00  0.00000000E+00
  0.00000000E+00  0.00000000E+00  0.00000000E+00
  0.00000000E+00  0.00000000E+00  0.00000000E+00
  0.00000000E+00  0.00000000E+00  0.00000000E+00
  0.00000000E+00  0.00000000E+00  0.00000000E+00
  0.00000000E+00  0.00000000E+00  0.00000000E+00
  0.00000000E+00  0.00000000E+00  0.00000000E+00
  0.00000000E+00  0.00000000E+00  0.00000000E+00
  0.00000000E+00  0.00000000E+00  0.00000000E+00
  0.00000000E+00  0.00000000E+00  0.00000000E+00
  0.00000000E+00  0.00000000E+00  0.00000000E+00
  0.00000000E+00  0.00000000E+00  0.00000000E+00
  0.00000000E+00  0.00000000E+00  0.00000000E+00
  0.00000000E+00  0.00000000E+00  0.00000000E+00
  0.00000000E+00  0.00000000E+00  0.00000000E+00
  0.00000000E+00  0.00000000E+00  0.00000000E+00
  0.00000000E+00  0.00000000E+00  0.00000000E+00
  0.00000000E+00  0.00000000E+00  0.00000000E+00
  0.00000000E+00  0.00000000E+00  0.00000000E+00
  0.00000000E+00  0.00000000E+00  0.00000000E+00
  0.00000000E+00  0.00000000E+00  0.00000000E+00
  0.00000000E+00  0.00000000E+00  0.00000000E+00
  0.00000000E+00  0.00000000E+00  0.00000000E+00
  0.00000000E+00  0.00000000E+00  0.00000000E+00
  0.00000000E+00  0.00000000E+00  0.00000000E+00
  0.00000000E+00  0.00000000E+00  0.00000000E+00
  0.00000000E+00  0.00000000E+00  0.00000000E+00
  0.00000000E+00  0.00000000E+00  0.00000000E+00
  0.00000000E+00  0.00000000E+00  0.00000000E+00
  0.00000000E+00  0.00000000E+00  0.00000000E+00
  0.00000000E+00  0.00000000E+00  0.00000000E+00
  0.00000000E+00  0.00000000E+00  0.00000000E+00
  0.00000000E+00  0.00000000E+00  0.00000000E+00
  0.00000000E+00  0.00000000E+00  0.00000000E+00
  0.00000000E+00  0.00000000E+00  0.00000000E+00
  0.00000000E+00  0.00000000E+00  0.00000000E+00
  0.00000000E+00  0.00000000E+00  0.00000000E+00
  0.00000000E+00  0.00000000E+00  0.00000000E+00
  0.00000000E+00  0.00000000E+00  0.00000000E+00
  0.00000000E+00  0.00000000E+00  0.00000000E+00
  0.00000000E+00  0.00000000E+00  0.00000000E+00
  0.00000000E+00  0.00000000E+00  0.00000000E+00
  0.00000000E+00  0.00000000E+00  0.00000000E+00
  0.00000000E+00  0.00000000E+00  0.00000000E+00
  0.00000000E+00  0.00000000E+00  0.00000000E+00
  0.00000000E+00  0.00000000E+00  0.00000000E+00
  0.00000000E+00  0.00000000E+00  0.00000000E+00
  0.00000000E+00  0.00000000E+00  0.00000000E+00
  0.00000000E+00  0.00000000E+00  0.00000000E+00
  0.00000000E+00  0.00000000E+00  0.00000000E+00
  0.00000000E+00  0.00000000E+00  0.00000000E+00
  0.00000000E+00  0.00000000E+00  0.00000000E+00
