KPOINTS from doped, with reciprocal_density = 195/Å⁻³
0
Gamma
10 10 10
