La1
1.0
   0.0000000000000000    2.6455169999999999    2.6455169999999999
   2.6455169999999999    0.0000000000000000    2.6455169999999999
   2.6455169999999999    2.6455169999999999    0.0000000000000000
La
1
direct
   0.0000000000000000    0.0000000000000000    0.0000000000000000 La
