KPOINTS from doped, with reciprocal_density = 995/Å⁻³
0
Gamma
18 18 18
