KPOINTS from doped, with reciprocal_density = 40/Å⁻³
0
Gamma
5 5 1
