-10.0% N(Distort)=1 ~[0.5,0.5,0.5]      
   1.00000000000000     
    12.5998379999999983    0.0000000000000004    0.0000000000000004
     0.0000000000000004   12.5998379999999983   -0.0000000000000004
    -0.0000000000000004   -0.0000000000000004   12.5998379999999983
   Mg   O 
   109   107
Direct
  0.6666747457406256 -0.0004252123218256  0.0003515219876704
  0.8332573384178387  0.1658596814877248  0.0004399232384424
  0.8331045563804841 -0.0004329449984239  0.1667204487650669
  0.3322058349860932 -0.0004216694801770  0.0003532945231024
  0.4994397543670895  0.1647288769773469 -0.0011004138539843
  0.6670509619329457  0.3321403306124766  0.9992428241570721
  0.8336360541600181  0.4993700746568435  0.0001424034634092
  0.4992788076604887 -0.0001966416894025  0.1661887091257966
  0.6668543559479831  0.1653903049869739  0.1665180111216044
  0.8330890942037379  0.3322840397925823  0.1667387424036119
  0.6665149727939792  0.0006909858853344  0.3332913259434964
  0.8333227625426312  0.1654052640525487  0.3329734997002683
  0.8336321313391382 -0.0001869963782895  0.5005359275404165
  0.9994993602382380 -0.0004081956377040  0.0003718746445533
  0.1658240960631992  0.1659184784842381  0.0000474411390815
  0.3319844190249278  0.3321086566257137 -0.0014896903216402
  0.4992075773441279  0.4993291440445408  0.9957676907480457
  0.6665481242481840  0.6666304413160630 -0.0007563697218064
  0.8331128193161363  0.8332249709737301  0.0003793456097799
  0.1657887931191805 -0.0005219717293225  0.1665809852825802
  0.3319118787822209  0.1653637434147614  0.1659522998055690
  0.4996837748136518  0.3262326481383495  0.1582897484705497
  0.6672742110733806  0.4990796743102522  0.1619386575368005
  0.8342555530026398  0.6665155672677884  0.1655156676934876
  0.3320913858480256  0.0006682320358581  0.3327775340829267
  0.4991439367230912  0.1643983690909386  0.3318687742150858
  0.6664158960659710  0.3309514333392714  0.3334005818896350
  0.8378604197060291  0.4990970958705693  0.3325305701703828
  0.4992061452256185  0.0040127803862987  0.5005751178603328
  0.6679566862625539  0.1644027716197700  0.5006572584878070
  0.8414913613392490  0.3262544137560042  0.5001233216345592
  0.6670249628417063  0.0006889397004830  0.6677011401721740
  0.8338670025556636  0.1653776807236567  0.6678933474969923
  0.8332512058064369 -0.0005053977334295  0.8340542965664961
 -0.0005151261665094  0.3322936576274341  0.0003405387898027
  0.1645859963757189  0.4995483234213727 -0.0011349464322095
  0.3320421982404561  0.6671800768892044 -0.0008422071570959
  0.4992962883951053  0.8337481257181230  0.0001046521591598
 -0.0006076297316383  0.1658577795877512  0.1665912113767304
  0.1652273866105298  0.3320109022708969  0.1659246398757722
  0.3259518329763759  0.4998379857238021  0.1581929695613484
  0.4989724505327644  0.6673683785873216  0.1617971873603269
  0.6664042160542315  0.8343799716102805  0.1655304929889906
  0.9994577690945630 -0.0004368543783425  0.3331439886905646
  0.1652661396317869  0.1653543553572283  0.3329054355560992
  0.3288614807118060  0.3290548716115956  0.3331453479892003
  0.4812968664683383  0.4818948974975860  0.2979280207472723
  0.6727383773849986  0.6727560394693342  0.3270622785367313
  0.8342545950528399  0.8343758483559137  0.3333922688116411
  0.1646611636601708  0.0009899112262602  0.5003517563960712
  0.3313079388675276  0.1653708176786138  0.5004133449727685
  0.4988802812812382  0.3222243662507963  0.5009351365876668
  0.7018016302640838  0.4819825061758988  0.5184212813609425
  0.8379982322425958  0.6674235584525910  0.5008441419038937
  0.3319803991820661  0.0013665432296558  0.6678086164800763
  0.4993662707775221  0.1653603122018754  0.6684777375245132
  0.6666433941210989  0.3290636226493659  0.6708984683224307
  0.8416020634931577  0.4998228599613901  0.6738274332477155
  0.4994469378614715  0.0009833446520878  0.8351527116590430
  0.6669093140786286  0.1653635750759640  0.8345261897268065
  0.8338855048112164  0.3320132400341024  0.8345645919480525
 -0.0005396410352310  0.6667672290463904  0.0003541444543464
  0.1657586303658787  0.8333576937790496  0.0004357408216456
 -0.0003508918815860  0.4993875946962396  0.1661836585098402
  0.1651896731711950  0.6669824702601471  0.1664556088459567
  0.3321737829176498  0.8331710058080197  0.1667090862831894
  0.0005716739364964  0.3321789935065809  0.3327864771122227
  0.1641892515399815  0.4992682125541140  0.3318231696071636
  0.3306719570648762  0.6664985702479046  0.3333614853290204
  0.4989931474160119  0.8379985538894232  0.3324996649574542
  0.0009219860277553  0.1647437947904960  0.5003614623314606
  0.1652919299595637  0.3314082857595336  0.5004224785162419
  0.3220948973014541  0.4990328818305870  0.5009016191313483
  0.4818616162790738  0.7015098624962216  0.5180070718718237
  0.6673010271679576  0.8380240521320567  0.5008212773864100
  0.9994863878085227 -0.0003886895311716  0.6676341445790736
  0.1661311657227514  0.1662353762546580  0.6675245989206708
  0.3325249346572956  0.3326482570853044  0.6672801544653917
  0.4989148485613061  0.4990346344650053  0.6777311257619179
  0.6664334039252482  0.6665043239761322  0.6691423963445695
  0.8331147543371634  0.8332122888121835  0.6676574110561394
  0.1658248871412583 -0.0000935987972873  0.8340396117680906
  0.3322964067718468  0.1662406345466078  0.8336753400550151
  0.4993940967638293  0.3314139889954722  0.8345170675144630
  0.6679855010318497  0.4992515810164378  0.8356116807492855
  0.8333736539812854  0.6669893253227483  0.8345711771803009
 -0.0005702418579035  0.8332148092545172  0.1667056517491833
  0.0005114416703539  0.6666432610205438  0.3332794142511791
  0.1652458955179310  0.8334418773185041  0.3329400008289005
  0.0040325449455888  0.4993368398401877  0.5006034256628327
  0.1642604392185861  0.6681024111000218  0.5006363987744613
  0.3261392470189814  0.8414893887035325  0.5001054393695886
  0.0012971103476496  0.3320860276744431  0.6678283237094385
  0.1653153637503221  0.4995241959205369  0.6684732422948473
  0.3289497467508168  0.6668192374701726  0.6708412019220045
  0.4996908361539854  0.8415217861754349  0.6736469294272595
 -0.0002122705979082  0.1659166418522164  0.8340361937062510
  0.1661453838399821  0.3324090644898293  0.8336613617106272
  0.3313064255687729  0.4995287747026117  0.8344963911287355
  0.4991571780862492  0.6681008932899416  0.8355335569982814
  0.6668700286470814  0.8334483047072941  0.8345452201745220
 -0.0002937782066694  0.8337765849916373  0.5005221417333962
  0.0006425378367266  0.6671753265510244  0.6677294350438145
  0.1652441516362500  0.8340281298256617  0.6678946456479077
  0.0009225161641858  0.4995608103957510  0.8351922604725298
  0.1652732175209136  0.6670516573839890  0.8345247299982367
  0.3319033820466956  0.8340164164273094  0.8345433969369076
 -0.0005958339284594  0.8333707639499474  0.8340874512521703
  0.5572544889254907  0.5567446046384356  0.4424285315232582
  0.8322996836868810  0.1665579370673574  0.1675403621760453
 -0.0009622051196376  0.3330815721926949  0.1672416759360517
  0.9992024578668922  0.1662584875143639  0.3337190110163477
  0.4994656344420013  0.1656870038607817  0.1663393631682363
  0.6646951897969560  0.3343194423897151  0.1679635071343449
  0.8309558514641674  0.4997018853282504  0.1688551060986651
 -0.0009142028606497  0.6659973899430131  0.1674543917354526
  0.6656962756198859  0.1671225963716577  0.3341468532727624
  0.8318667439269323  0.3343396009141452  0.3351017260783200
  0.0006141466307154  0.4995741017937670  0.3330421650973937
  0.8334725724037638  0.1656870661708485  0.5003471687808249
  0.0018839500747287  0.3318633162667431  0.5002107059241536
 -0.0002899776594972  0.1663832770315372  0.6668464720945825
  0.1663286610489365  0.1664141643300996  0.1669760499115193
  0.3341660728234550  0.3343255450747917  0.1668661622812672
  0.4990456233271011  0.4992021207836531  0.1543111772356149
  0.6646646063495347  0.6648029652228367  0.1677033151952933
  0.8319070516484951  0.8320400043393237  0.1679001148673057
  0.9992320948018807 -0.0006654523179703  0.1672063560265194
  0.3328797636840291  0.1664635478871393  0.3335300703972120
  0.4983461939677193  0.3328582996207133  0.3342358535821393
  0.6573144535463671  0.4991379290376638  0.3424679361058529
  0.8320700845910038  0.6648274128388916  0.3351477890832253
 -0.0008889461054842  0.8324741192764835  0.3339286310276932
  0.4997566224515537  0.1654295555055833  0.5000391918759691
  0.6655742209257283  0.3328986787043006  0.5014375606722866
  0.8454729127252257  0.4992734526254829  0.5007539942955538
  0.0006740893603733  0.6669447039818844  0.5003583193241966
  0.6662613147646631  0.1664576686604650  0.6668989069481430
  0.8329342277209391  0.3343202263261209  0.6656400217569391
  0.0019352494935057  0.4997424647609804  0.6680439148821612
  0.8328463468584771  0.1664212782234448  0.8334805555313559
 -0.0002913751025766  0.3330872317347462  0.8335308729051836
 -0.0006202571904897  0.1662457195954663  0.0004633875417611
  0.1654748736573709  0.4995992803866147  0.1662695651937529
  0.3342074762462467  0.6648224471438197  0.1679207621206659
  0.4995894727635939  0.8310013564294110  0.1688964132313963
  0.6658485142394289 -0.0007496249396002  0.1674941641905709
  0.1662973514575777  0.3329609812684848  0.3335361469737627
  0.3323207710590800  0.4985066941593992  0.3341049360727391
  0.4989885384148370  0.6568298960706684  0.3426808711186212
  0.6646422939430940  0.8320883765991297  0.3351558529145513
  0.8323242156388165 -0.0007537388142365  0.3339553984626560
  0.1667003112222342  0.1667720141867665  0.5000743073248407
  0.3355568058060688  0.3356973046984358  0.4996051038774011
  0.6569818630004006  0.6568410358821958  0.5007808519067997
  0.8309047080707679  0.8310242401286008  0.5002108549209252
  0.9991150908738126 -0.0007611383833024  0.5002730782936877
  0.3334160343921548  0.1674278437147633  0.6663646359665985
  0.5001881984474775  0.3356755202351099  0.6642576852737573
  0.6656652903108417  0.4985251454052337  0.6674469284827061
  0.8318655766800749  0.6648437120914412  0.6655732478407719
 -0.0009550604539988  0.8327230040049959  0.6668292255920617
  0.4997453565444704  0.1667603395654159  0.8331125800853283
  0.6662994097138798  0.3329510061060491  0.8335007975394280
  0.8335411222417779  0.4995975541125631  0.8343124263723011
 -0.0007825970426701  0.6662277581485215  0.8336353155655248
  0.6661009323695061  0.1662403383934169  0.0006119852267794
  0.8325949144263597  0.3330555074211695  0.0007824087562343
 -0.0008923564060938  0.4996284485149722  0.0006857369533370
  0.1664442710735823  0.8324133282245388  0.1675081224598294
  0.3330000583572524 -0.0008620431362630  0.1672419232147470
  0.1669089396786863  0.6658428555354569  0.3340747774241210
  0.3342828731148264  0.8318893338880203  0.3350559746158338
  0.4994610186314444  0.0007601232222940  0.3330496218853266
  0.1653157333031813  0.4999059075459693  0.5000360119181301
  0.3326056062318733  0.6657432784444690  0.5013994562207476
  0.4991574975478728  0.8452947779042379  0.5006479224098624
  0.6667724472182177  0.0007542934453047  0.5003397858451858
  0.1673390552550939  0.3335379770387834  0.6663654091417015
  0.3355736680882183  0.5003435484941812  0.6642312558227652
  0.4984083715035751  0.6657409164457873  0.6672413224356177
  0.6647454518506352  0.8319092492206728  0.6655332682792006
  0.8325607484447015 -0.0008527585557721  0.6668089919793240
  0.1664099464052687  0.1665145187690944  0.8334319353773791
  0.3334328246105478  0.3335547347188120  0.8324477241569754
  0.4997615308114965  0.4998836487539191  0.8345014851858875
  0.6657530042515353  0.6658428197561620  0.8329006585900536
  0.8323187295632598  0.8324307456691320  0.8333666554307333
 -0.0006244470738224 -0.0005063457443748  0.8337101738438722
  0.3329841590562115  0.1663805381121763  0.0001187613821975
  0.4996009499365242  0.3318438628040272  0.9978959592675234
  0.6667817980161274  0.4995230530460651 -0.0008273408364132
  0.8323669193576534  0.6659851359959356  0.0006962007604500
 -0.0007658476807331  0.8327222565070145  0.0006123736421517
  0.1661751479411115 -0.0006967500864097  0.3337082305896739
  0.1655454120096274  0.8336171631018514  0.5002944914247158
  0.3317774216500258  0.0019340085831401  0.5001677446217592
  0.1663481057086383  0.6664325284812276  0.6669134432873522
  0.3341548992471011  0.8330829686481926  0.6656375601603981
  0.4996173901320903  0.0019437689370610  0.6679900333921797
  0.1666821121195869  0.4998558852578437  0.8331110734006363
  0.3328763592437615  0.6664464398279645  0.8334362624915339
  0.4994885197908728  0.8336193457232239  0.8342468396910213
  0.6661113860302184 -0.0007018837464546  0.8336078944013647
  0.1662617674188307  0.3330870732527184  0.0001090498947332
  0.3317319799568207  0.4997513150933702 -0.0021376142922943
  0.4994517583199261  0.6669009524250996 -0.0008799360509061
  0.6658709084004925  0.8324735578909648  0.0006759284115429
  0.8326210282397802 -0.0006498631721498  0.0005962663186260
  0.1662536335053195 -0.0001733427724735  0.6668305311943734
  0.1663073768257320  0.8329890292778583  0.8334994837388406
  0.3329843342456804 -0.0001770585988094  0.8335372861088322
  0.1661429593711272  0.6662205412083030  0.0005780089089498
  0.3329703734672705  0.8326972270955094  0.0007670491782131
  0.4995322234948962 -0.0007797329863980  0.0006899744022539
  0.1661587344407321 -0.0005186777582091  0.0004682495338889
 
  0.00000000E+00  0.00000000E+00  0.00000000E+00
  0.00000000E+00  0.00000000E+00  0.00000000E+00
  0.00000000E+00  0.00000000E+00  0.00000000E+00
  0.00000000E+00  0.00000000E+00  0.00000000E+00
  0.00000000E+00  0.00000000E+00  0.00000000E+00
  0.00000000E+00  0.00000000E+00  0.00000000E+00
  0.00000000E+00  0.00000000E+00  0.00000000E+00
  0.00000000E+00  0.00000000E+00  0.00000000E+00
  0.00000000E+00  0.00000000E+00  0.00000000E+00
  0.00000000E+00  0.00000000E+00  0.00000000E+00
  0.00000000E+00  0.00000000E+00  0.00000000E+00
  0.00000000E+00  0.00000000E+00  0.00000000E+00
  0.00000000E+00  0.00000000E+00  0.00000000E+00
  0.00000000E+00  0.00000000E+00  0.00000000E+00
  0.00000000E+00  0.00000000E+00  0.00000000E+00
  0.00000000E+00  0.00000000E+00  0.00000000E+00
  0.00000000E+00  0.00000000E+00  0.00000000E+00
  0.00000000E+00  0.00000000E+00  0.00000000E+00
  0.00000000E+00  0.00000000E+00  0.00000000E+00
  0.00000000E+00  0.00000000E+00  0.00000000E+00
  0.00000000E+00  0.00000000E+00  0.00000000E+00
  0.00000000E+00  0.00000000E+00  0.00000000E+00
  0.00000000E+00  0.00000000E+00  0.00000000E+00
  0.00000000E+00  0.00000000E+00  0.00000000E+00
  0.00000000E+00  0.00000000E+00  0.00000000E+00
  0.00000000E+00  0.00000000E+00  0.00000000E+00
  0.00000000E+00  0.00000000E+00  0.00000000E+00
  0.00000000E+00  0.00000000E+00  0.00000000E+00
  0.00000000E+00  0.00000000E+00  0.00000000E+00
  0.00000000E+00  0.00000000E+00  0.00000000E+00
  0.00000000E+00  0.00000000E+00  0.00000000E+00
  0.00000000E+00  0.00000000E+00  0.00000000E+00
  0.00000000E+00  0.00000000E+00  0.00000000E+00
  0.00000000E+00  0.00000000E+00  0.00000000E+00
  0.00000000E+00  0.00000000E+00  0.00000000E+00
  0.00000000E+00  0.00000000E+00  0.00000000E+00
  0.00000000E+00  0.00000000E+00  0.00000000E+00
  0.00000000E+00  0.00000000E+00  0.00000000E+00
  0.00000000E+00  0.00000000E+00  0.00000000E+00
  0.00000000E+00  0.00000000E+00  0.00000000E+00
  0.00000000E+00  0.00000000E+00  0.00000000E+00
  0.00000000E+00  0.00000000E+00  0.00000000E+00
  0.00000000E+00  0.00000000E+00  0.00000000E+00
  0.00000000E+00  0.00000000E+00  0.00000000E+00
  0.00000000E+00  0.00000000E+00  0.00000000E+00
  0.00000000E+00  0.00000000E+00  0.00000000E+00
  0.00000000E+00  0.00000000E+00  0.00000000E+00
  0.00000000E+00  0.00000000E+00  0.00000000E+00
  0.00000000E+00  0.00000000E+00  0.00000000E+00
  0.00000000E+00  0.00000000E+00  0.00000000E+00
  0.00000000E+00  0.00000000E+00  0.00000000E+00
  0.00000000E+00  0.00000000E+00  0.00000000E+00
  0.00000000E+00  0.00000000E+00  0.00000000E+00
  0.00000000E+00  0.00000000E+00  0.00000000E+00
  0.00000000E+00  0.00000000E+00  0.00000000E+00
  0.00000000E+00  0.00000000E+00  0.00000000E+00
  0.00000000E+00  0.00000000E+00  0.00000000E+00
  0.00000000E+00  0.00000000E+00  0.00000000E+00
  0.00000000E+00  0.00000000E+00  0.00000000E+00
  0.00000000E+00  0.00000000E+00  0.00000000E+00
  0.00000000E+00  0.00000000E+00  0.00000000E+00
  0.00000000E+00  0.00000000E+00  0.00000000E+00
  0.00000000E+00  0.00000000E+00  0.00000000E+00
  0.00000000E+00  0.00000000E+00  0.00000000E+00
  0.00000000E+00  0.00000000E+00  0.00000000E+00
  0.00000000E+00  0.00000000E+00  0.00000000E+00
  0.00000000E+00  0.00000000E+00  0.00000000E+00
  0.00000000E+00  0.00000000E+00  0.00000000E+00
  0.00000000E+00  0.00000000E+00  0.00000000E+00
  0.00000000E+00  0.00000000E+00  0.00000000E+00
  0.00000000E+00  0.00000000E+00  0.00000000E+00
  0.00000000E+00  0.00000000E+00  0.00000000E+00
  0.00000000E+00  0.00000000E+00  0.00000000E+00
  0.00000000E+00  0.00000000E+00  0.00000000E+00
  0.00000000E+00  0.00000000E+00  0.00000000E+00
  0.00000000E+00  0.00000000E+00  0.00000000E+00
  0.00000000E+00  0.00000000E+00  0.00000000E+00
  0.00000000E+00  0.00000000E+00  0.00000000E+00
  0.00000000E+00  0.00000000E+00  0.00000000E+00
  0.00000000E+00  0.00000000E+00  0.00000000E+00
  0.00000000E+00  0.00000000E+00  0.00000000E+00
  0.00000000E+00  0.00000000E+00  0.00000000E+00
  0.00000000E+00  0.00000000E+00  0.00000000E+00
  0.00000000E+00  0.00000000E+00  0.00000000E+00
  0.00000000E+00  0.00000000E+00  0.00000000E+00
  0.00000000E+00  0.00000000E+00  0.00000000E+00
  0.00000000E+00  0.00000000E+00  0.00000000E+00
  0.00000000E+00  0.00000000E+00  0.00000000E+00
  0.00000000E+00  0.00000000E+00  0.00000000E+00
  0.00000000E+00  0.00000000E+00  0.00000000E+00
  0.00000000E+00  0.00000000E+00  0.00000000E+00
  0.00000000E+00  0.00000000E+00  0.00000000E+00
  0.00000000E+00  0.00000000E+00  0.00000000E+00
  0.00000000E+00  0.00000000E+00  0.00000000E+00
  0.00000000E+00  0.00000000E+00  0.00000000E+00
  0.00000000E+00  0.00000000E+00  0.00000000E+00
  0.00000000E+00  0.00000000E+00  0.00000000E+00
  0.00000000E+00  0.00000000E+00  0.00000000E+00
  0.00000000E+00  0.00000000E+00  0.00000000E+00
  0.00000000E+00  0.00000000E+00  0.00000000E+00
  0.00000000E+00  0.00000000E+00  0.00000000E+00
  0.00000000E+00  0.00000000E+00  0.00000000E+00
  0.00000000E+00  0.00000000E+00  0.00000000E+00
  0.00000000E+00  0.00000000E+00  0.00000000E+00
  0.00000000E+00  0.00000000E+00  0.00000000E+00
  0.00000000E+00  0.00000000E+00  0.00000000E+00
  0.00000000E+00  0.00000000E+00  0.00000000E+00
  0.00000000E+00  0.00000000E+00  0.00000000E+00
  0.00000000E+00  0.00000000E+00  0.00000000E+00
  0.00000000E+00  0.00000000E+00  0.00000000E+00
  0.00000000E+00  0.00000000E+00  0.00000000E+00
  0.00000000E+00  0.00000000E+00  0.00000000E+00
  0.00000000E+00  0.00000000E+00  0.00000000E+00
  0.00000000E+00  0.00000000E+00  0.00000000E+00
  0.00000000E+00  0.00000000E+00  0.00000000E+00
  0.00000000E+00  0.00000000E+00  0.00000000E+00
  0.00000000E+00  0.00000000E+00  0.00000000E+00
  0.00000000E+00  0.00000000E+00  0.00000000E+00
  0.00000000E+00  0.00000000E+00  0.00000000E+00
  0.00000000E+00  0.00000000E+00  0.00000000E+00
  0.00000000E+00  0.00000000E+00  0.00000000E+00
  0.00000000E+00  0.00000000E+00  0.00000000E+00
  0.00000000E+00  0.00000000E+00  0.00000000E+00
  0.00000000E+00  0.00000000E+00  0.00000000E+00
  0.00000000E+00  0.00000000E+00  0.00000000E+00
  0.00000000E+00  0.00000000E+00  0.00000000E+00
  0.00000000E+00  0.00000000E+00  0.00000000E+00
  0.00000000E+00  0.00000000E+00  0.00000000E+00
  0.00000000E+00  0.00000000E+00  0.00000000E+00
  0.00000000E+00  0.00000000E+00  0.00000000E+00
  0.00000000E+00  0.00000000E+00  0.00000000E+00
  0.00000000E+00  0.00000000E+00  0.00000000E+00
  0.00000000E+00  0.00000000E+00  0.00000000E+00
  0.00000000E+00  0.00000000E+00  0.00000000E+00
  0.00000000E+00  0.00000000E+00  0.00000000E+00
  0.00000000E+00  0.00000000E+00  0.00000000E+00
  0.00000000E+00  0.00000000E+00  0.00000000E+00
  0.00000000E+00  0.00000000E+00  0.00000000E+00
  0.00000000E+00  0.00000000E+00  0.00000000E+00
  0.00000000E+00  0.00000000E+00  0.00000000E+00
  0.00000000E+00  0.00000000E+00  0.00000000E+00
  0.00000000E+00  0.00000000E+00  0.00000000E+00
  0.00000000E+00  0.00000000E+00  0.00000000E+00
  0.00000000E+00  0.00000000E+00  0.00000000E+00
  0.00000000E+00  0.00000000E+00  0.00000000E+00
  0.00000000E+00  0.00000000E+00  0.00000000E+00
  0.00000000E+00  0.00000000E+00  0.00000000E+00
  0.00000000E+00  0.00000000E+00  0.00000000E+00
  0.00000000E+00  0.00000000E+00  0.00000000E+00
  0.00000000E+00  0.00000000E+00  0.00000000E+00
  0.00000000E+00  0.00000000E+00  0.00000000E+00
  0.00000000E+00  0.00000000E+00  0.00000000E+00
  0.00000000E+00  0.00000000E+00  0.00000000E+00
  0.00000000E+00  0.00000000E+00  0.00000000E+00
  0.00000000E+00  0.00000000E+00  0.00000000E+00
  0.00000000E+00  0.00000000E+00  0.00000000E+00
  0.00000000E+00  0.00000000E+00  0.00000000E+00
  0.00000000E+00  0.00000000E+00  0.00000000E+00
  0.00000000E+00  0.00000000E+00  0.00000000E+00
  0.00000000E+00  0.00000000E+00  0.00000000E+00
  0.00000000E+00  0.00000000E+00  0.00000000E+00
  0.00000000E+00  0.00000000E+00  0.00000000E+00
  0.00000000E+00  0.00000000E+00  0.00000000E+00
  0.00000000E+00  0.00000000E+00  0.00000000E+00
  0.00000000E+00  0.00000000E+00  0.00000000E+00
  0.00000000E+00  0.00000000E+00  0.00000000E+00
  0.00000000E+00  0.00000000E+00  0.00000000E+00
  0.00000000E+00  0.00000000E+00  0.00000000E+00
  0.00000000E+00  0.00000000E+00  0.00000000E+00
  0.00000000E+00  0.00000000E+00  0.00000000E+00
  0.00000000E+00  0.00000000E+00  0.00000000E+00
  0.00000000E+00  0.00000000E+00  0.00000000E+00
  0.00000000E+00  0.00000000E+00  0.00000000E+00
  0.00000000E+00  0.00000000E+00  0.00000000E+00
  0.00000000E+00  0.00000000E+00  0.00000000E+00
  0.00000000E+00  0.00000000E+00  0.00000000E+00
  0.00000000E+00  0.00000000E+00  0.00000000E+00
  0.00000000E+00  0.00000000E+00  0.00000000E+00
  0.00000000E+00  0.00000000E+00  0.00000000E+00
  0.00000000E+00  0.00000000E+00  0.00000000E+00
  0.00000000E+00  0.00000000E+00  0.00000000E+00
  0.00000000E+00  0.00000000E+00  0.00000000E+00
  0.00000000E+00  0.00000000E+00  0.00000000E+00
  0.00000000E+00  0.00000000E+00  0.00000000E+00
  0.00000000E+00  0.00000000E+00  0.00000000E+00
  0.00000000E+00  0.00000000E+00  0.00000000E+00
  0.00000000E+00  0.00000000E+00  0.00000000E+00
  0.00000000E+00  0.00000000E+00  0.00000000E+00
  0.00000000E+00  0.00000000E+00  0.00000000E+00
  0.00000000E+00  0.00000000E+00  0.00000000E+00
  0.00000000E+00  0.00000000E+00  0.00000000E+00
  0.00000000E+00  0.00000000E+00  0.00000000E+00
  0.00000000E+00  0.00000000E+00  0.00000000E+00
  0.00000000E+00  0.00000000E+00  0.00000000E+00
  0.00000000E+00  0.00000000E+00  0.00000000E+00
  0.00000000E+00  0.00000000E+00  0.00000000E+00
  0.00000000E+00  0.00000000E+00  0.00000000E+00
  0.00000000E+00  0.00000000E+00  0.00000000E+00
  0.00000000E+00  0.00000000E+00  0.00000000E+00
  0.00000000E+00  0.00000000E+00  0.00000000E+00
  0.00000000E+00  0.00000000E+00  0.00000000E+00
  0.00000000E+00  0.00000000E+00  0.00000000E+00
  0.00000000E+00  0.00000000E+00  0.00000000E+00
  0.00000000E+00  0.00000000E+00  0.00000000E+00
  0.00000000E+00  0.00000000E+00  0.00000000E+00
  0.00000000E+00  0.00000000E+00  0.00000000E+00
  0.00000000E+00  0.00000000E+00  0.00000000E+00
  0.00000000E+00  0.00000000E+00  0.00000000E+00
  0.00000000E+00  0.00000000E+00  0.00000000E+00
  0.00000000E+00  0.00000000E+00  0.00000000E+00
  0.00000000E+00  0.00000000E+00  0.00000000E+00
  0.00000000E+00  0.00000000E+00  0.00000000E+00
  0.00000000E+00  0.00000000E+00  0.00000000E+00
  0.00000000E+00  0.00000000E+00  0.00000000E+00
  0.00000000E+00  0.00000000E+00  0.00000000E+00
  0.00000000E+00  0.00000000E+00  0.00000000E+00
