KPOINTS from doped, with reciprocal_density = 580/Å⁻³
0
Gamma
16 16 10
