-40.0% N(Distort)=2 ~[0.5,0.5,0.5]      
   1.00000000000000     
    12.5998379999999983    0.0000000000000004    0.0000000000000004
     0.0000000000000004   12.5998379999999983   -0.0000000000000004
    -0.0000000000000004   -0.0000000000000004   12.5998379999999983
   Mg   O 
   109   107
Direct
  0.6664584774137944 -0.0005226932287931  0.0005642383940823
  0.8331591147952550  0.1657618598543573  0.0006542383870158
  0.8330053732895680 -0.0005793243888909  0.1669858739209458
  0.3322178025542585 -0.0004811331759657  0.0004452580615823
  0.4994018332403140  0.1647760721497634 -0.0010078634077609
  0.6669007786979076  0.3322163356996989  0.9996264206185782
  0.8334853454568398  0.4992988699467748  0.0005133727491122
  0.4992394685956363  0.9995624501967799  0.1664583976615081
  0.6667195833294436  0.1652691668235340  0.1667533399719257
  0.8330178703253678  0.3322195975767846  0.1669720709497291
  0.6664484788589878  0.0003247846161050  0.3335605670610626
  0.8332453937756785  0.1652623998826771  0.3332574604809610
  0.8335215861398478 -0.0004371289811623  0.5007720050459287
 -0.0006086779836197 -0.0005445292691106  0.0005352632996607
  0.1657699308253567  0.1658214532079169  0.0001356287928688
  0.3319720837322748  0.3320432721603221 -0.0013049989588941
  0.4991714472605267  0.4992618291807305  0.9963419737131548
  0.6664052921175277  0.6664683031210339 -0.0002294853210135
  0.8330046010766147  0.8330836157449448  0.0006149258991026
  0.1656753083279086 -0.0006246544804959  0.1667706316921417
  0.3318691105259488  0.1651757700679360  0.1660128112473180
  0.4995596849582406  0.3261438454886413  0.1592897267468235
  0.6668829094209744  0.4990617413802139  0.1636922050754855
  0.8341479492833928  0.6663911540230057  0.1658433026084928
  0.3321493033655070  0.0003890708714340  0.3330139042253545
  0.4991672127688049  0.1646403736685358  0.3323442948619404
  0.6663366526250656  0.3310106200062835  0.3336690123832429
  0.8363018028829967  0.4990499246906939  0.3331077074863589
  0.4992638938473172  0.0036658770101061  0.5007549867604735
  0.6676302452819954  0.1646880265449047  0.5008334744820893
  0.8406550637585354  0.3261998563978680  0.5004485787574786
  0.6669997705393399  0.0004258425753240  0.6678455776280730
  0.8339455087102065  0.1652106861164269  0.6680856212195844
  0.8331893188610272 -0.0006047738820678  0.8342891243126234
 -0.0005467462379537  0.3322817104092534  0.0004988657811908
  0.1647345647200600  0.4994512446151860 -0.0009441994942403
  0.3321199794360894  0.6669841777550100 -0.0003750832728723
  0.4992181889727436  0.8335532362750743  0.0004492311790725
 -0.0006949980321249  0.1657514124473054  0.1667918090610001
  0.1651035109335908  0.3319626959752418  0.1660342114601019
  0.3260389507753154  0.4996375927753607  0.1592767682342754
  0.4989964584883450  0.6669719167314251  0.1636620607487767
  0.6663218217548700  0.8342407251992719  0.1657931098961818
  0.9994165681322488 -0.0005402522450503  0.3334952712791834
  0.1651933155618373  0.1652411079740825  0.3332085323147294
  0.3285016147235180  0.3285543619888171  0.3331307676256721
  0.4802108762519985  0.4803833547486440  0.3015759427484452
  0.6726239383352299  0.6726992713545820  0.3273624871166061
  0.8341800372911042  0.8342117108349699  0.3337043000466450
  0.1648016998390629  0.0009602942669400  0.5005540607500453
  0.3320955408372442  0.1662114477001988  0.5004788023818197
  0.4995013760793289  0.3289268795334828  0.5004604327906975
  0.6983116796471918  0.4805105506986508  0.5198052176821678
  0.8363605968173237  0.6669352380259755  0.5010090654951410
  0.3320849119461448  0.0012813652686291  0.6679033487368393
  0.4995086266684575  0.1662415288323970  0.6678809185878810
  0.6668672514463676  0.3286144246517326  0.6714759504276211
  0.8407233095528998  0.4996428789287143  0.6739615767964502
  0.4994133598877660  0.0010025684433459  0.8351768487269491
  0.6667771711522785  0.1652705571052648  0.8347879462531185
  0.8339309577251509  0.3319687317524103  0.8348900827352616
 -0.0005844650182590  0.6665542785647732  0.0005833725282011
  0.1656976844973957  0.8332164297072270  0.0006239383938737
 -0.0005081282957897  0.4993053701316589  0.1664915187572292
  0.1651689401314145  0.6668023347537603  0.1667436457554887
  0.3321508782590576  0.8331091315472374  0.1669136022494864
  0.0003553271995446  0.3322057380093740  0.3330444185197619
  0.1645809958697818  0.4992263793499245  0.3323747319503573
  0.3309465317849675  0.6663799568484188  0.3336362972850636
  0.4990294879204696  0.8363856755750462  0.3330470871383094
  0.0009922097564007  0.1648040235289531  0.5005814386704224
  0.1661979930290669  0.3321079125285435  0.5005079049041347
  0.3289153260692539  0.4995523367039688  0.5004668835993229
  0.4805945760335376  0.6982621263299715  0.5196018778423022
  0.6669531306193816  0.8364124977264230  0.5010013483823761
  0.9995344111932043 -0.0004858486494273  0.6677219494926957
  0.1663348223468278  0.1663140752589977  0.6674638077225946
  0.3329582541504994  0.3329379369538008  0.6670348988628433
  0.4995725528992748  0.4995754609957989  0.6711383387665819
  0.6663819122794208  0.6663881966785280  0.6691329009229334
  0.8330853812615679  0.8330694374641593  0.6678415300408462
  0.1658258617485520 -0.0001574313874378  0.8341258406239940
  0.3324860950745015  0.1662978137769607  0.8336534197728581
  0.4994558575196802  0.3321008745429972  0.8337902769484670
  0.6676334435383905  0.4992389987879144  0.8354498890008228
  0.8332571766206616  0.6667797078112392  0.8348599281455802
 -0.0006538682621647  0.8330722201479148  0.1669716174578483
  0.0002719852115502  0.6664779223321199  0.3335914427531228
  0.1652284835906666  0.8332966561437597  0.3332475889438175
  0.0036798299859941  0.4992599523909736  0.5008072182972839
  0.1646821359491179  0.6676394462592503  0.5008202234531786
  0.3262260099963302  0.8406492493606005  0.5003911791206973
  0.0013156207652656  0.3320860145047369  0.6679629996034322
  0.1662411464574529  0.4995143184356720  0.6679344463135219
  0.3286540522871597  0.6668619611254341  0.6714074842506160
  0.4996397667355681  0.8406991552111949  0.6738642241374209
 -0.0001754148182048  0.1658514392089435  0.8341558334963681
  0.1662821063968767  0.3325011944096990  0.8336979757451395
  0.3320829787428226  0.4994916485439873  0.8337851751422696
  0.4991869495038694  0.6676617327094456  0.8353954256151238
  0.6667467068578601  0.8333012029234675  0.8348148369761121
 -0.0004415311327297  0.8335141810548639  0.5007501555085963
  0.0004194515649787  0.6669750168822438  0.6678457987933289
  0.1652462916117770  0.8339433448204386  0.6680376241231594
  0.0009665628589442  0.4994490271353235  0.8352721250154922
  0.1652358269007353  0.6668072638900292  0.8347558578843819
  0.3319577834992987  0.8339682178927440  0.8348047647503710
 -0.0006441892449469  0.8332011342211997  0.8342659814635929
  0.5571786068826320  0.5570121379702452  0.4426767587523345
  0.8324664372826033  0.1662092152384348  0.1675064000616274
 -0.0010389193485693  0.3327788783303475  0.1672161235334219
 -0.0008466608266635  0.1659709085490946  0.3337640593471578
  0.4994059158684659  0.1649129005626449  0.1658671072207679
  0.6652048007145409  0.3337053899160934  0.1676541446167272
  0.8314137383413952  0.4995641947897709  0.1685902360132032
 -0.0009455469626868  0.6660489711184540  0.1674974110690657
  0.6661143733206588  0.1664314737753709  0.3338807906532326
  0.8323270246595642  0.3337106459156278  0.3347730433776084
  0.0002486735173998  0.4994707674341446  0.3334005118283113
  0.8341161495778441  0.1649370761782613  0.5005766232045481
  0.0018354728716820  0.3318920308292596  0.5004299662910937
 -0.0001454092184742  0.1661099777382267  0.6671806246208355
  0.1659669294535242  0.1660632535892159  0.1669573775448009
  0.3333349268146693  0.3333922571210538  0.1663515072496082
  0.4986393625961716  0.4987465647899016  0.1562887963017058
  0.6652483707708550  0.6653287165747139  0.1673093294619509
  0.8321042043596429  0.8321654879008797  0.1678998825048902
 -0.0008597582395148 -0.0007749457282707  0.1673380329881355
  0.3323619759911032  0.1657012610213372  0.3332475844550959
  0.4982397420732696  0.3297959609257492  0.3308934634309167
  0.6599986529603982  0.5000031099470016  0.3399611158503877
  0.8326585386176809  0.6652865247764020  0.3347905404949523
 -0.0009299553207167  0.8325778647260170  0.3340331720834310
  0.4999623416503589  0.1669326163724980  0.4999962677310915
  0.6690543073975338  0.3298524084879429  0.5017485060894664
  0.8436677515272996  0.4987570964827261  0.5013556142422551
  0.0003330600304773  0.6666422185968555  0.5005831712703335
  0.6667254279063827  0.1657463931572151  0.6675841781953291
  0.8336617160527104  0.3334373239488355  0.6666366573387765
  0.0018824728598774  0.4996155315157593  0.6681890681801331
  0.8330270255459808  0.1660810950594363  0.8339668025627388
 -0.0001833918748233  0.3328042525278909  0.8339453200698987
 -0.0006795577111799  0.1659978867898611  0.0006069155636268
  0.1648424384127505  0.4994732531730065  0.1658951137773853
  0.3336499955134560  0.6652833368808939  0.1676574871780170
  0.4995198780841129  0.8314684154870816  0.1685463381552742
  0.6659870875228412 -0.0008493245705513  0.1675011167951165
  0.1656618408594494  0.3324084481661441  0.3332513966326404
  0.3296541690516797  0.4983289301948722  0.3308972006204834
  0.4999839073626974  0.6599037035287039  0.3400106687523821
  0.6652563899082982  0.8327115476900299  0.3347740940496289
  0.8325017669457634 -0.0008724405058791  0.3340179787501513
  0.1664738659064515  0.1664674344709577  0.5001988828200782
  0.3339636533378275  0.3339619067455103  0.4994136386748807
  0.6598476788991153  0.6598490899949675  0.5000700480352744
  0.8314205220676777  0.8314214311302274  0.5004841330473394
  0.9991753869596178 -0.0008331769083930  0.5005145223638937
  0.3332318225926980  0.1670868132413780  0.6667695055493806
  0.5005608698863145  0.3339944046758758  0.6660271365211005
  0.6690918506370295  0.4983458517496370  0.6704102750981572
  0.8323589438215200  0.6652504004923742  0.6663421552196951
 -0.0009347156320203  0.8327943196988343  0.6672297308142479
  0.4997442430542793  0.1664785817602640  0.8335160269124988
  0.6666848394116327  0.3324443399799142  0.8343204776752428
  0.8340962344262242  0.4994781158418010  0.8351792397572182
 -0.0008121847807877  0.6662591081309009  0.8340403994874789
  0.6661958627344184  0.1659962198623403  0.0007991707621717
  0.8327389382934909  0.3328049380360719  0.0010025137690017
 -0.0008534014383954  0.4995233997570263  0.0008486096476938
  0.1661190848049151  0.8325281586701773  0.1674891614840933
  0.3327107046154851 -0.0009598131106913  0.1671777717206561
  0.1663655880308568  0.6661707244249977  0.3338756003721670
  0.3336894738350149  0.8323554014893080  0.3347439056172191
  0.4994550818172999  0.0003184943646912  0.3333327265236591
  0.1669213581138156  0.4999913172814022  0.5000308842011720
  0.3298979944274277  0.6690433311443607  0.5017083440321087
  0.4987459844939922  0.8436126419592458  0.5012726765903978
  0.6666582294608339  0.0003394761519563  0.5005788686451514
  0.1670930546503113  0.3332334044331006  0.6667986605297190
  0.3339728858679868  0.5005564215323788  0.6660286968510343
  0.4983456045673406  0.6691019483220726  0.6702881175873897
  0.6652787829933714  0.8323678275852935  0.6663398106714895
  0.8328228406005006 -0.0009570479408992  0.6672430121787449
  0.1663003902804543  0.1663070332995206  0.8336579760815226
  0.3331921012090618  0.3332227634468715  0.8329053883193565
  0.4999424083055962  0.4999870698614775  0.8331191670930134
  0.6661341177301273  0.6661777866726448  0.8336887486777138
  0.8324992325412883  0.8325084570738148  0.8338482684926057
 -0.0006147933442278 -0.0006184516595788  0.8339981483328016
  0.3327361478078749  0.1660745714235615  0.0001495641742031
  0.4995072482888999  0.3318909517249987  0.9981540678898218
  0.6665825400914742  0.4994850024574946 -0.0002354984028447
  0.8325132266265107  0.6660364140513368  0.0009570418978084
 -0.0008420069275994  0.8326931522038195  0.0008030154664750
  0.1659429168111132 -0.0007980058283587  0.3337481834297445
  0.1649424913883254  0.8341099577325414  0.5005386726941380
  0.3319098442157545  0.0018424272349107  0.5003847836995385
  0.1657764939468231  0.6667306903147974  0.6675903875360276
  0.3334512675499243  0.8336255552476034  0.6665954474043960
  0.4996298999993559  0.0018606768526093  0.6681120576360760
  0.1664844295571202  0.4997870556282215  0.8335455393194503
  0.3324006882963304  0.6667282163325712  0.8342814278057198
  0.4994525551982807  0.8341452364591605  0.8351155877262230
  0.6662284996090010 -0.0007687067603507  0.8340365192726799
  0.1660097636617077  0.3327975393066510  0.0001764191585180
  0.3318030345834770  0.4995815769301232 -0.0018401538351236
  0.4993994599277156  0.6666779699551361 -0.0002711595296737
  0.6659583180561535  0.8325967428655880  0.0009255361366463
  0.8326325826017056 -0.0007761492466710  0.0008087201512200
  0.1661081654175666 -0.0001785519822131  0.6671772574203655
  0.1660626443752977  0.8330324793040109  0.8339192068502218
  0.3327823362179937 -0.0001690514230695  0.8338757874915802
  0.1659236415164834  0.6662674353548683  0.0008237298849717
  0.3327298213973790  0.8328378190533150  0.0009564209427295
  0.4994425244775894  0.9992109277934218  0.0008081859169021
  0.1659297596851924 -0.0006311569822708  0.0005997814214200
 
  0.00000000E+00  0.00000000E+00  0.00000000E+00
  0.00000000E+00  0.00000000E+00  0.00000000E+00
  0.00000000E+00  0.00000000E+00  0.00000000E+00
  0.00000000E+00  0.00000000E+00  0.00000000E+00
  0.00000000E+00  0.00000000E+00  0.00000000E+00
  0.00000000E+00  0.00000000E+00  0.00000000E+00
  0.00000000E+00  0.00000000E+00  0.00000000E+00
  0.00000000E+00  0.00000000E+00  0.00000000E+00
  0.00000000E+00  0.00000000E+00  0.00000000E+00
  0.00000000E+00  0.00000000E+00  0.00000000E+00
  0.00000000E+00  0.00000000E+00  0.00000000E+00
  0.00000000E+00  0.00000000E+00  0.00000000E+00
  0.00000000E+00  0.00000000E+00  0.00000000E+00
  0.00000000E+00  0.00000000E+00  0.00000000E+00
  0.00000000E+00  0.00000000E+00  0.00000000E+00
  0.00000000E+00  0.00000000E+00  0.00000000E+00
  0.00000000E+00  0.00000000E+00  0.00000000E+00
  0.00000000E+00  0.00000000E+00  0.00000000E+00
  0.00000000E+00  0.00000000E+00  0.00000000E+00
  0.00000000E+00  0.00000000E+00  0.00000000E+00
  0.00000000E+00  0.00000000E+00  0.00000000E+00
  0.00000000E+00  0.00000000E+00  0.00000000E+00
  0.00000000E+00  0.00000000E+00  0.00000000E+00
  0.00000000E+00  0.00000000E+00  0.00000000E+00
  0.00000000E+00  0.00000000E+00  0.00000000E+00
  0.00000000E+00  0.00000000E+00  0.00000000E+00
  0.00000000E+00  0.00000000E+00  0.00000000E+00
  0.00000000E+00  0.00000000E+00  0.00000000E+00
  0.00000000E+00  0.00000000E+00  0.00000000E+00
  0.00000000E+00  0.00000000E+00  0.00000000E+00
  0.00000000E+00  0.00000000E+00  0.00000000E+00
  0.00000000E+00  0.00000000E+00  0.00000000E+00
  0.00000000E+00  0.00000000E+00  0.00000000E+00
  0.00000000E+00  0.00000000E+00  0.00000000E+00
  0.00000000E+00  0.00000000E+00  0.00000000E+00
  0.00000000E+00  0.00000000E+00  0.00000000E+00
  0.00000000E+00  0.00000000E+00  0.00000000E+00
  0.00000000E+00  0.00000000E+00  0.00000000E+00
  0.00000000E+00  0.00000000E+00  0.00000000E+00
  0.00000000E+00  0.00000000E+00  0.00000000E+00
  0.00000000E+00  0.00000000E+00  0.00000000E+00
  0.00000000E+00  0.00000000E+00  0.00000000E+00
  0.00000000E+00  0.00000000E+00  0.00000000E+00
  0.00000000E+00  0.00000000E+00  0.00000000E+00
  0.00000000E+00  0.00000000E+00  0.00000000E+00
  0.00000000E+00  0.00000000E+00  0.00000000E+00
  0.00000000E+00  0.00000000E+00  0.00000000E+00
  0.00000000E+00  0.00000000E+00  0.00000000E+00
  0.00000000E+00  0.00000000E+00  0.00000000E+00
  0.00000000E+00  0.00000000E+00  0.00000000E+00
  0.00000000E+00  0.00000000E+00  0.00000000E+00
  0.00000000E+00  0.00000000E+00  0.00000000E+00
  0.00000000E+00  0.00000000E+00  0.00000000E+00
  0.00000000E+00  0.00000000E+00  0.00000000E+00
  0.00000000E+00  0.00000000E+00  0.00000000E+00
  0.00000000E+00  0.00000000E+00  0.00000000E+00
  0.00000000E+00  0.00000000E+00  0.00000000E+00
  0.00000000E+00  0.00000000E+00  0.00000000E+00
  0.00000000E+00  0.00000000E+00  0.00000000E+00
  0.00000000E+00  0.00000000E+00  0.00000000E+00
  0.00000000E+00  0.00000000E+00  0.00000000E+00
  0.00000000E+00  0.00000000E+00  0.00000000E+00
  0.00000000E+00  0.00000000E+00  0.00000000E+00
  0.00000000E+00  0.00000000E+00  0.00000000E+00
  0.00000000E+00  0.00000000E+00  0.00000000E+00
  0.00000000E+00  0.00000000E+00  0.00000000E+00
  0.00000000E+00  0.00000000E+00  0.00000000E+00
  0.00000000E+00  0.00000000E+00  0.00000000E+00
  0.00000000E+00  0.00000000E+00  0.00000000E+00
  0.00000000E+00  0.00000000E+00  0.00000000E+00
  0.00000000E+00  0.00000000E+00  0.00000000E+00
  0.00000000E+00  0.00000000E+00  0.00000000E+00
  0.00000000E+00  0.00000000E+00  0.00000000E+00
  0.00000000E+00  0.00000000E+00  0.00000000E+00
  0.00000000E+00  0.00000000E+00  0.00000000E+00
  0.00000000E+00  0.00000000E+00  0.00000000E+00
  0.00000000E+00  0.00000000E+00  0.00000000E+00
  0.00000000E+00  0.00000000E+00  0.00000000E+00
  0.00000000E+00  0.00000000E+00  0.00000000E+00
  0.00000000E+00  0.00000000E+00  0.00000000E+00
  0.00000000E+00  0.00000000E+00  0.00000000E+00
  0.00000000E+00  0.00000000E+00  0.00000000E+00
  0.00000000E+00  0.00000000E+00  0.00000000E+00
  0.00000000E+00  0.00000000E+00  0.00000000E+00
  0.00000000E+00  0.00000000E+00  0.00000000E+00
  0.00000000E+00  0.00000000E+00  0.00000000E+00
  0.00000000E+00  0.00000000E+00  0.00000000E+00
  0.00000000E+00  0.00000000E+00  0.00000000E+00
  0.00000000E+00  0.00000000E+00  0.00000000E+00
  0.00000000E+00  0.00000000E+00  0.00000000E+00
  0.00000000E+00  0.00000000E+00  0.00000000E+00
  0.00000000E+00  0.00000000E+00  0.00000000E+00
  0.00000000E+00  0.00000000E+00  0.00000000E+00
  0.00000000E+00  0.00000000E+00  0.00000000E+00
  0.00000000E+00  0.00000000E+00  0.00000000E+00
  0.00000000E+00  0.00000000E+00  0.00000000E+00
  0.00000000E+00  0.00000000E+00  0.00000000E+00
  0.00000000E+00  0.00000000E+00  0.00000000E+00
  0.00000000E+00  0.00000000E+00  0.00000000E+00
  0.00000000E+00  0.00000000E+00  0.00000000E+00
  0.00000000E+00  0.00000000E+00  0.00000000E+00
  0.00000000E+00  0.00000000E+00  0.00000000E+00
  0.00000000E+00  0.00000000E+00  0.00000000E+00
  0.00000000E+00  0.00000000E+00  0.00000000E+00
  0.00000000E+00  0.00000000E+00  0.00000000E+00
  0.00000000E+00  0.00000000E+00  0.00000000E+00
  0.00000000E+00  0.00000000E+00  0.00000000E+00
  0.00000000E+00  0.00000000E+00  0.00000000E+00
  0.00000000E+00  0.00000000E+00  0.00000000E+00
  0.00000000E+00  0.00000000E+00  0.00000000E+00
  0.00000000E+00  0.00000000E+00  0.00000000E+00
  0.00000000E+00  0.00000000E+00  0.00000000E+00
  0.00000000E+00  0.00000000E+00  0.00000000E+00
  0.00000000E+00  0.00000000E+00  0.00000000E+00
  0.00000000E+00  0.00000000E+00  0.00000000E+00
  0.00000000E+00  0.00000000E+00  0.00000000E+00
  0.00000000E+00  0.00000000E+00  0.00000000E+00
  0.00000000E+00  0.00000000E+00  0.00000000E+00
  0.00000000E+00  0.00000000E+00  0.00000000E+00
  0.00000000E+00  0.00000000E+00  0.00000000E+00
  0.00000000E+00  0.00000000E+00  0.00000000E+00
  0.00000000E+00  0.00000000E+00  0.00000000E+00
  0.00000000E+00  0.00000000E+00  0.00000000E+00
  0.00000000E+00  0.00000000E+00  0.00000000E+00
  0.00000000E+00  0.00000000E+00  0.00000000E+00
  0.00000000E+00  0.00000000E+00  0.00000000E+00
  0.00000000E+00  0.00000000E+00  0.00000000E+00
  0.00000000E+00  0.00000000E+00  0.00000000E+00
  0.00000000E+00  0.00000000E+00  0.00000000E+00
  0.00000000E+00  0.00000000E+00  0.00000000E+00
  0.00000000E+00  0.00000000E+00  0.00000000E+00
  0.00000000E+00  0.00000000E+00  0.00000000E+00
  0.00000000E+00  0.00000000E+00  0.00000000E+00
  0.00000000E+00  0.00000000E+00  0.00000000E+00
  0.00000000E+00  0.00000000E+00  0.00000000E+00
  0.00000000E+00  0.00000000E+00  0.00000000E+00
  0.00000000E+00  0.00000000E+00  0.00000000E+00
  0.00000000E+00  0.00000000E+00  0.00000000E+00
  0.00000000E+00  0.00000000E+00  0.00000000E+00
  0.00000000E+00  0.00000000E+00  0.00000000E+00
  0.00000000E+00  0.00000000E+00  0.00000000E+00
  0.00000000E+00  0.00000000E+00  0.00000000E+00
  0.00000000E+00  0.00000000E+00  0.00000000E+00
  0.00000000E+00  0.00000000E+00  0.00000000E+00
  0.00000000E+00  0.00000000E+00  0.00000000E+00
  0.00000000E+00  0.00000000E+00  0.00000000E+00
  0.00000000E+00  0.00000000E+00  0.00000000E+00
  0.00000000E+00  0.00000000E+00  0.00000000E+00
  0.00000000E+00  0.00000000E+00  0.00000000E+00
  0.00000000E+00  0.00000000E+00  0.00000000E+00
  0.00000000E+00  0.00000000E+00  0.00000000E+00
  0.00000000E+00  0.00000000E+00  0.00000000E+00
  0.00000000E+00  0.00000000E+00  0.00000000E+00
  0.00000000E+00  0.00000000E+00  0.00000000E+00
  0.00000000E+00  0.00000000E+00  0.00000000E+00
  0.00000000E+00  0.00000000E+00  0.00000000E+00
  0.00000000E+00  0.00000000E+00  0.00000000E+00
  0.00000000E+00  0.00000000E+00  0.00000000E+00
  0.00000000E+00  0.00000000E+00  0.00000000E+00
  0.00000000E+00  0.00000000E+00  0.00000000E+00
  0.00000000E+00  0.00000000E+00  0.00000000E+00
  0.00000000E+00  0.00000000E+00  0.00000000E+00
  0.00000000E+00  0.00000000E+00  0.00000000E+00
  0.00000000E+00  0.00000000E+00  0.00000000E+00
  0.00000000E+00  0.00000000E+00  0.00000000E+00
  0.00000000E+00  0.00000000E+00  0.00000000E+00
  0.00000000E+00  0.00000000E+00  0.00000000E+00
  0.00000000E+00  0.00000000E+00  0.00000000E+00
  0.00000000E+00  0.00000000E+00  0.00000000E+00
  0.00000000E+00  0.00000000E+00  0.00000000E+00
  0.00000000E+00  0.00000000E+00  0.00000000E+00
  0.00000000E+00  0.00000000E+00  0.00000000E+00
  0.00000000E+00  0.00000000E+00  0.00000000E+00
  0.00000000E+00  0.00000000E+00  0.00000000E+00
  0.00000000E+00  0.00000000E+00  0.00000000E+00
  0.00000000E+00  0.00000000E+00  0.00000000E+00
  0.00000000E+00  0.00000000E+00  0.00000000E+00
  0.00000000E+00  0.00000000E+00  0.00000000E+00
  0.00000000E+00  0.00000000E+00  0.00000000E+00
  0.00000000E+00  0.00000000E+00  0.00000000E+00
  0.00000000E+00  0.00000000E+00  0.00000000E+00
  0.00000000E+00  0.00000000E+00  0.00000000E+00
  0.00000000E+00  0.00000000E+00  0.00000000E+00
  0.00000000E+00  0.00000000E+00  0.00000000E+00
  0.00000000E+00  0.00000000E+00  0.00000000E+00
  0.00000000E+00  0.00000000E+00  0.00000000E+00
  0.00000000E+00  0.00000000E+00  0.00000000E+00
  0.00000000E+00  0.00000000E+00  0.00000000E+00
  0.00000000E+00  0.00000000E+00  0.00000000E+00
  0.00000000E+00  0.00000000E+00  0.00000000E+00
  0.00000000E+00  0.00000000E+00  0.00000000E+00
  0.00000000E+00  0.00000000E+00  0.00000000E+00
  0.00000000E+00  0.00000000E+00  0.00000000E+00
  0.00000000E+00  0.00000000E+00  0.00000000E+00
  0.00000000E+00  0.00000000E+00  0.00000000E+00
  0.00000000E+00  0.00000000E+00  0.00000000E+00
  0.00000000E+00  0.00000000E+00  0.00000000E+00
  0.00000000E+00  0.00000000E+00  0.00000000E+00
  0.00000000E+00  0.00000000E+00  0.00000000E+00
  0.00000000E+00  0.00000000E+00  0.00000000E+00
  0.00000000E+00  0.00000000E+00  0.00000000E+00
  0.00000000E+00  0.00000000E+00  0.00000000E+00
  0.00000000E+00  0.00000000E+00  0.00000000E+00
  0.00000000E+00  0.00000000E+00  0.00000000E+00
  0.00000000E+00  0.00000000E+00  0.00000000E+00
  0.00000000E+00  0.00000000E+00  0.00000000E+00
  0.00000000E+00  0.00000000E+00  0.00000000E+00
  0.00000000E+00  0.00000000E+00  0.00000000E+00
  0.00000000E+00  0.00000000E+00  0.00000000E+00
  0.00000000E+00  0.00000000E+00  0.00000000E+00
  0.00000000E+00  0.00000000E+00  0.00000000E+00
  0.00000000E+00  0.00000000E+00  0.00000000E+00
  0.00000000E+00  0.00000000E+00  0.00000000E+00
  0.00000000E+00  0.00000000E+00  0.00000000E+00
  0.00000000E+00  0.00000000E+00  0.00000000E+00
  0.00000000E+00  0.00000000E+00  0.00000000E+00
