-20.0%_BDM__vac_4_Se[0.08333333 0.555145
   1.0000000000000000     
    11.8576449999999998    0.0000000000000000    0.0000000000000000
     0.0000000000000000   11.5459130000000005    0.0000000000000000
     0.0000000000000000    0.0000000000000000   11.9281419999999994
   O    Sb   Se
     1    24    35
Direct
  0.0838632097397619  0.5978899909498021  0.9214444400588129
  0.2567455405710310  0.0359706317055318  0.1413325209783710
  0.7510310566701363  0.1708590716474099  0.5294806758532830
  0.4173629316211767  0.1708283196936627  0.5295036933082163
  0.0841245098368603  0.1717159402738106  0.5355468210609440
  0.5842174246043645  0.8263830589010416  0.4650852133734418
  0.2503099856127330  0.8267578461717466  0.4654332578606588
  0.9371836706760671  0.6682677706985523  0.9705266459558611
  0.5835607723232396  0.6599815724730809  0.9644374056321183
  0.2304227001973553  0.6682686525554397  0.9705559556647185
  0.7517209427054515  0.3296833686013795  0.0229729647826457
  0.4162724079836871  0.3297311703821457  0.0229191812123153
  0.0840364662005976  0.3128913289812573  0.0277471252210944
  0.9181260542729198  0.8267561989600726  0.4653308344465093
  0.5842458144671172  0.4622782605298734  0.6442024499989336
  0.9153934456959930  0.4622850435723111  0.6439956134348110
  0.5835528577939892  0.0321001944109066  0.1396338403260360
  0.9107095416578906  0.0362082368964301  0.1412676665020088
  0.4180357880497925  0.9546222310241705  0.8534778250372965
  0.0837515042983908  0.9511584774646737  0.8485334596815322
  0.0843912871756474  0.5367157417330850  0.3531491507769368
  0.4178118515586334  0.5344834606693556  0.3534902061937400
  0.7507109105376868  0.5345324871361936  0.3536046321268509
  0.2530244868972427  0.4623641206115525  0.6438081689255482
  0.7491855471474669  0.9544124831798172  0.8538229517581949
  0.5843091296362438  0.3703808265762224  0.4461974885396659
  0.9178887811861721  0.3712448075100506  0.4473667041149368
  0.0843548640508905  0.6284931127714160  0.5493002840288973
  0.4175912356478140  0.6260725950465258  0.5503811678054680
  0.7507211030106911  0.6262055898918135  0.5504218221822600
  0.4130183998267775  0.5504704909398851  0.8702148026241058
  0.4193894236776517  0.1912548277307813  0.2029633823750444
  0.2511095592053417  0.1248175453761663  0.9439364106963907
  0.5839095346033143  0.1160214271940465  0.9387850922082853
  0.9163687118746597  0.1249830679721255  0.9438076250036593
  0.0839603932115475  0.1897675981430539  0.2070560902362466
  0.7481571284949402  0.1912663961284655  0.2031147316612998
  0.2487773786002666  0.4409091606300734  0.1187752689945341
  0.2505760242975466  0.3709872256148539  0.4473165807051200
  0.7542401670862023  0.5506144486547057  0.8705045373826305
  0.7518426132378453  0.8676953690927804  0.0521642186140912
  0.9168059371497872  0.0532933185854910  0.6269806210929032
  0.0839123723612086  0.8685002746999599  0.0500122661039593
  0.0842925942334823  0.9448248262935600  0.3706529900489151
  0.4176216675185098  0.9433720655894577  0.3696526908897522
  0.7507744912625797  0.9431479021006416  0.3694001215985355
  0.2514980857609834  0.0535808330841137  0.6271291288857412
  0.5843024285051623  0.0538291433220742  0.6251357981770410
  0.5838924193905649  0.4422916988217126  0.1234507957006094
  0.0841897437160815  0.3093807508386655  0.7127720488383286
  0.4173600883916997  0.3063563412105103  0.7074583185025570
  0.7510822000108593  0.3063701700791413  0.7074633240158318
  0.2511171454181226  0.6906802685981883  0.2874672942547364
  0.5840844940791168  0.6895148477887986  0.2880109787186592
  0.9176671519297054  0.6904756752901741  0.2875104327439684
  0.2459323295695884  0.7960750023339545  0.7871448711419651
  0.5836497063070054  0.8010094580658060  0.7875988057478037
  0.9219925687038303  0.7959413845420834  0.7871334497295204
  0.4155095555710870  0.8678564422170336  0.0518751018180621
  0.9192941941774375  0.4409047580423816  0.1187598846476073

  0.00000000E+00  0.00000000E+00  0.00000000E+00
  0.00000000E+00  0.00000000E+00  0.00000000E+00
  0.00000000E+00  0.00000000E+00  0.00000000E+00
  0.00000000E+00  0.00000000E+00  0.00000000E+00
  0.00000000E+00  0.00000000E+00  0.00000000E+00
  0.00000000E+00  0.00000000E+00  0.00000000E+00
  0.00000000E+00  0.00000000E+00  0.00000000E+00
  0.00000000E+00  0.00000000E+00  0.00000000E+00
  0.00000000E+00  0.00000000E+00  0.00000000E+00
  0.00000000E+00  0.00000000E+00  0.00000000E+00
  0.00000000E+00  0.00000000E+00  0.00000000E+00
  0.00000000E+00  0.00000000E+00  0.00000000E+00
  0.00000000E+00  0.00000000E+00  0.00000000E+00
  0.00000000E+00  0.00000000E+00  0.00000000E+00
  0.00000000E+00  0.00000000E+00  0.00000000E+00
  0.00000000E+00  0.00000000E+00  0.00000000E+00
  0.00000000E+00  0.00000000E+00  0.00000000E+00
  0.00000000E+00  0.00000000E+00  0.00000000E+00
  0.00000000E+00  0.00000000E+00  0.00000000E+00
  0.00000000E+00  0.00000000E+00  0.00000000E+00
  0.00000000E+00  0.00000000E+00  0.00000000E+00
  0.00000000E+00  0.00000000E+00  0.00000000E+00
  0.00000000E+00  0.00000000E+00  0.00000000E+00
  0.00000000E+00  0.00000000E+00  0.00000000E+00
  0.00000000E+00  0.00000000E+00  0.00000000E+00
  0.00000000E+00  0.00000000E+00  0.00000000E+00
  0.00000000E+00  0.00000000E+00  0.00000000E+00
  0.00000000E+00  0.00000000E+00  0.00000000E+00
  0.00000000E+00  0.00000000E+00  0.00000000E+00
  0.00000000E+00  0.00000000E+00  0.00000000E+00
  0.00000000E+00  0.00000000E+00  0.00000000E+00
  0.00000000E+00  0.00000000E+00  0.00000000E+00
  0.00000000E+00  0.00000000E+00  0.00000000E+00
  0.00000000E+00  0.00000000E+00  0.00000000E+00
  0.00000000E+00  0.00000000E+00  0.00000000E+00
  0.00000000E+00  0.00000000E+00  0.00000000E+00
  0.00000000E+00  0.00000000E+00  0.00000000E+00
  0.00000000E+00  0.00000000E+00  0.00000000E+00
  0.00000000E+00  0.00000000E+00  0.00000000E+00
  0.00000000E+00  0.00000000E+00  0.00000000E+00
  0.00000000E+00  0.00000000E+00  0.00000000E+00
  0.00000000E+00  0.00000000E+00  0.00000000E+00
  0.00000000E+00  0.00000000E+00  0.00000000E+00
  0.00000000E+00  0.00000000E+00  0.00000000E+00
  0.00000000E+00  0.00000000E+00  0.00000000E+00
  0.00000000E+00  0.00000000E+00  0.00000000E+00
  0.00000000E+00  0.00000000E+00  0.00000000E+00
  0.00000000E+00  0.00000000E+00  0.00000000E+00
  0.00000000E+00  0.00000000E+00  0.00000000E+00
  0.00000000E+00  0.00000000E+00  0.00000000E+00
  0.00000000E+00  0.00000000E+00  0.00000000E+00
  0.00000000E+00  0.00000000E+00  0.00000000E+00
  0.00000000E+00  0.00000000E+00  0.00000000E+00
  0.00000000E+00  0.00000000E+00  0.00000000E+00
  0.00000000E+00  0.00000000E+00  0.00000000E+00
  0.00000000E+00  0.00000000E+00  0.00000000E+00
  0.00000000E+00  0.00000000E+00  0.00000000E+00
  0.00000000E+00  0.00000000E+00  0.00000000E+00
  0.00000000E+00  0.00000000E+00  0.00000000E+00
  0.00000000E+00  0.00000000E+00  0.00000000E+00
