-10.0% N(Distort)=2 ~[0.5,0.5,0.5]      
   1.00000000000000     
    12.5998379999999983    0.0000000000000004    0.0000000000000004
     0.0000000000000004   12.5998379999999983   -0.0000000000000004
    -0.0000000000000004   -0.0000000000000004   12.5998379999999983
   Mg   O 
   109   107
Direct
  0.6664994051224561 -0.0005265500827269  0.0005614019226070
  0.8331642564348426  0.1657675988776328  0.0006314467051769
  0.8330203954215999 -0.0005617665442109  0.1669479823051086
  0.3322764478773969 -0.0004715166093950  0.0004776786365114
  0.4993936550105249  0.1648042104243905 -0.0009788582510338
  0.6669238859810787  0.3321883013857670  0.9996276025301740
  0.8334865239294618  0.4992781084800292  0.0005037989027646
  0.4992532879221424  0.9995598655787579  0.1664920055327146
  0.6667250697641709  0.1652683110610922  0.1667342463129088
  0.8330411686409961  0.3321995188501868  0.1669517434073602
  0.6664408732333925  0.0003145198601891  0.3335685208552937
  0.8332537120697768  0.1652568469929485  0.3332641378458062
  0.8335239956853966 -0.0004432145271888  0.5007406712224252
  0.9994464475225086 -0.0005348316292641  0.0005184029969306
  0.1658311946471363  0.1658670386461698  0.0001394026936676
  0.3320270638036490  0.3320862146871831 -0.0013062813135417
  0.4992163188566726  0.4992524902879739  0.9963732991118553
  0.6664198723859525  0.6664732703297912 -0.0002549460576925
  0.8330263440342612  0.8330736639066412  0.0006125326690911
  0.1657291621967174 -0.0006156054102295  0.1667950609205687
  0.3319248278493489  0.1651893777063649  0.1660514252492959
  0.4995675155516760  0.3261437808160885  0.1593124053849209
  0.6669079060197554  0.4990461580456070  0.1637240539750968
  0.8341811446271816  0.6663707010623973  0.1658169551856399
  0.3321617487498826  0.0003782252776300  0.3330367151189533
  0.4991831737586804  0.1646344524811607  0.3323662696490870
  0.6663248705952227  0.3309834349732597  0.3336644741115294
  0.8362973779890641  0.4990661515278055  0.3331033159591612
  0.4992365567652052  0.0036516129392378  0.5007530911344109
  0.6676077903945856  0.1646539824223402  0.5008173242721008
  0.8406486592733308  0.3261701734013709  0.5004082946686270
  0.6669727030874530  0.0003963706316685  0.6678278440404914
  0.8339465251853156  0.1652091674469572  0.6680513388673283
  0.8331958870144434 -0.0006051339462153  0.8342495404214629
 -0.0005200610714325  0.3323046978620836  0.0004947754446129
  0.1647492652291409  0.4994546009456395 -0.0009730581528935
  0.3321435353486279  0.6669984309102970 -0.0003772443746588
  0.4992533387169059  0.8335344610597668  0.0004815579144784
 -0.0006565969176861  0.1657579630276542  0.1667960674384729
  0.1651322462251686  0.3319715010516192  0.1660742533287965
  0.3260775358755564  0.4996487981554646  0.1593142377674945
  0.4990129170766404  0.6669542360001148  0.1636993315690892
  0.6663298733668090  0.8342452997867180  0.1658144275168960
  0.9994154017824579 -0.0005548352368896  0.3334710440575984
  0.1651993625522429  0.1652285891121044  0.3332096757845351
  0.3284899105693055  0.3285293217698963  0.3331571315379767
  0.4802363902814947  0.4803249861989483  0.3016954651156414
  0.6726942311286178  0.6727349582463287  0.3272977803857374
  0.8341829321646860  0.8342484621767458  0.3336707024498668
  0.1647723515149667  0.0009748655372688  0.5005549058763787
  0.3320736861349950  0.1662041934821427  0.5005123289086741
  0.4995197564986716  0.3288988990918760  0.5004741325841727
  0.6982607738496456  0.4804339996812582  0.5197511855743057
  0.8363332330719212  0.6669610490200838  0.5009901771999506
  0.3320669672920878  0.0012929565505487  0.6679142315507506
  0.4994713491119352  0.1662142268827642  0.6679002428874791
  0.6668123282812966  0.3285766128678715  0.6714753210370891
  0.8406752248948206  0.4996427244330407  0.6738904445420254
  0.4994224501093071  0.0009976959073065  0.8352084078107793
  0.6667666700934739  0.1652481975622819  0.8347713212016802
  0.8339114969490605  0.3319777104158522  0.8348271038882078
 -0.0005897603964584  0.6665382728603957  0.0005818111011156
  0.1657247414567318  0.8332160893890173  0.0006206640868163
 -0.0005012845522113  0.4992852080002417  0.1665114864702381
  0.1651759971326786  0.6667830789796179  0.1667457397096572
  0.3321736572914804  0.8330758256017209  0.1669366500634346
  0.0003503409102946  0.3321844458810530  0.3330591270989247
  0.1645900147644451  0.4992051033978852  0.3323769324085367
  0.3309385684193386  0.6663761977029318  0.3336446156913721
  0.4990366195922580  0.8363301064773032  0.3330755983699592
  0.0009688418986507  0.1647907839437057  0.5005698277201047
  0.1661965505649877  0.3321008456436304  0.5005182878180907
  0.3288939481161717  0.4995423943604823  0.5004691799888524
  0.4804182640455872  0.6982852831451875  0.5196948929148798
  0.6669363541593332  0.8363645418900665  0.5009916276719127
  0.9995188115606405 -0.0004622408375120  0.6677012337075872
  0.1663129917590059  0.1663173286663970  0.6674807387361781
  0.3329455509900360  0.3329466512370197  0.6670590307372849
  0.4995474037998858  0.4995701967591857  0.6711563189780873
  0.6663609422189888  0.6663847778910773  0.6691106399884922
  0.8330679976642509  0.8330739991143395  0.6678347942210807
  0.1658558587522342 -0.0001258948421000  0.8341286603217063
  0.3324952191795219  0.1663214042739762  0.8336805896785053
  0.4994644247619432  0.3320932066873064  0.8337989800264134
  0.6676118825388287  0.4992122605713377  0.8354270021298946
  0.8332658079279257  0.6667682958375559  0.8348357613608014
 -0.0006324535189815  0.8330796484007595  0.1669541382206265
  0.0002602955528632  0.6664867960398616  0.3335624653428574
  0.1652137590920136  0.8332799315886852  0.3332447053410404
  0.0036257318587221  0.4992544450543974  0.5007696993674782
  0.1646300611152118  0.6676278585410924  0.5008097377226806
  0.3261591028190762  0.8406683600979552  0.5003942218242505
  0.0012855821640257  0.3320839740423907  0.6679351390304454
  0.1662100978554474  0.4994920582037788  0.6679305856776189
  0.3285687597922379  0.6668498814744618  0.6714698132569135
  0.4996241435281630  0.8406987088798954  0.6738744711590616
 -0.0001594525345224  0.1658705616905301  0.8341443102482355
  0.1662903936087840  0.3325125261284516  0.8336888638140630
  0.3320760382187095  0.4994970136772511  0.8338112743541922
  0.4991908304519856  0.6676548685187098  0.8354180247201387
  0.6667615226406574  0.8332870627735365  0.8348135495195307
 -0.0004647066946449  0.8335289782693405  0.5007367068192005
  0.0003893497557642  0.6669896685935524  0.6678380209482669
  0.1651834118861526  0.8339498505257746  0.6680414849807502
  0.0009658156620489  0.4994544709498153  0.8352366157187591
  0.1652234264238500  0.6668024869931327  0.8347822267621885
  0.3319594555275492  0.8339559572005921  0.8348130850919991
 -0.0006296556977490  0.8332243669368654  0.8342316302793070
  0.5572200626657170  0.5572471432945791  0.4426468781113189
  0.8324800136747792  0.1662155759498194  0.1674997880112723
 -0.0009937303087305  0.3327940019305264  0.1672223246968179
  0.9991796042632372  0.1659866014487484  0.3337613990258363
  0.4994257338177724  0.1649029937472948  0.1658896084358566
  0.6652001167164201  0.3337095827189151  0.1676744748670398
  0.8314106104481884  0.4995622423334591  0.1685995118725223
 -0.0009310145064010  0.6660331130284076  0.1674768083618523
  0.6661249229380256  0.1663849965075474  0.3338761307126102
  0.8323203467585802  0.3337084806822054  0.3347876895634169
  0.0002428055210235  0.4994637861775289  0.3333819829998543
  0.8341061033960688  0.1649188273638774  0.5005622894696796
  0.0018182514500315  0.3318910680319344  0.5004287809845814
 -0.0001654368903743  0.1661256092331796  0.6671839523720874
  0.1660200223419692  0.1660580864634807  0.1669550608039546
  0.3333623997529859  0.3334249978352717  0.1663869854726754
  0.4986524238629030  0.4987090303175157  0.1563534771554960
  0.6652500881580834  0.6653152483092938  0.1673042248923510
  0.8321148789920239  0.8321800390624740  0.1678570920400046
  0.9991816741388423 -0.0007837012691635  0.1672972367712014
  0.3323835026692546  0.1657068450153277  0.3332736396203831
  0.4982721108070159  0.3297416776187770  0.3309434819113780
  0.6599842846631395  0.5000289103072948  0.3399852834485696
  0.8326876928901575  0.6653273809963891  0.3347390112738794
 -0.0009156612605006  0.8325818835334721  0.3339952715153861
  0.4999523923955112  0.1669115065888940  0.5000336528236189
  0.6690165314407550  0.3298038426104811  0.5017198049164383
  0.8436071771369367  0.4987322199567575  0.5013403294021307
  0.0002768965340163  0.6666597120125222  0.5005721109941574
  0.6667014989960337  0.1657414100003367  0.6676035978381221
  0.8335939010913337  0.3334230328285804  0.6666057597675790
  0.0018422794779694  0.4996199927729708  0.6681470479124723
  0.8330180685210383  0.1660921198226992  0.8339495156840854
 -0.0001948943460128  0.3328321895431142  0.8339076892163796
 -0.0006415146867968  0.1660329501330151  0.0006105592478334
  0.1648463860552964  0.4994858404512548  0.1658961291119544
  0.3336582499821424  0.6652720360037006  0.1676464986907309
  0.4995290650050684  0.8314668327741732  0.1685733558513892
  0.6659891394179833 -0.0008597150206045  0.1674573280539280
  0.1656726748995925  0.3323974384989845  0.3332963789968654
  0.3296632720306357  0.4983089357690100  0.3309409060906522
  0.4999648686900834  0.6600008318940291  0.3399799054300350
  0.6652743682157698  0.8327414143586380  0.3347370203144528
  0.8325359024903645 -0.0008627360957883  0.3339913091259142
  0.1664542912849297  0.1664688996122119  0.5002279770049058
  0.3339417070646149  0.3339636439146331  0.4994500187409356
  0.6599445528074530  0.6599729396714644  0.5000508108153591
  0.8314233399664166  0.8314565203643262  0.5004727443049664
  0.9991575606004865 -0.0008155290362677  0.5004912994488034
  0.3332088630299631  0.1670936897340816  0.6667760067553803
  0.5005374881065525  0.3339822922375847  0.6660479528878048
  0.6690482466031168  0.4983259495996943  0.6703328460801485
  0.8323493090219356  0.6652707019463570  0.6663481240009363
 -0.0009676537682505  0.8328130460099485  0.6672276665844399
  0.4997499056790618  0.1664856352327689  0.8335221994241875
  0.6666864919322724  0.3324124405408668  0.8343044545283845
  0.8341121816529542  0.4994856317738008  0.8351370615762815
 -0.0007967261779433  0.6662599286842678  0.8340518317032448
  0.6662112949446960  0.1659898924116032  0.0008007094818725
  0.8327656841897040  0.3327962897880474  0.0009825849833395
 -0.0008653775306530  0.4995275615670567  0.0008532711551351
  0.1661611198497864  0.8325334697846828  0.1674933301521997
  0.3327559207527679 -0.0009526082455310  0.1671984985535311
  0.1663448010926884  0.6661607757333425  0.3338659417190926
  0.3336838154021419  0.8323596352905728  0.3347565473529236
  0.4994298917591385  0.0002799936290897  0.3333643140974632
  0.1669065244230969  0.4999634369158062  0.5000508488660494
  0.3297654156086570  0.6690519358562846  0.5017015395605848
  0.4987084106691391  0.8436225292569518  0.5013136821626315
  0.6666412387939681  0.0003040738545728  0.5005771124061722
  0.1670817277331886  0.3332241878853863  0.6667865019120520
  0.3339766672445494  0.5005642930078503  0.6660612450746086
  0.4983143956345562  0.6690724345076923  0.6703304567190335
  0.6652440685845334  0.8323648658106320  0.6663368685314051
  0.8328114640541844 -0.0009486135431901  0.6672413868166658
  0.1663048027692704  0.1663341680921437  0.8336702902318094
  0.3331820771330578  0.3332147295090468  0.8329114731361396
  0.4999495280552917  0.4999826531076073  0.8331241005828985
  0.6661413552389711  0.6661573749490587  0.8336902769212827
  0.8325044697104410  0.8325218355152200  0.8338363849292200
 -0.0006241550425505 -0.0006009722740300  0.8339583819625157
  0.3327797503396448  0.1661087559261133  0.0001681923594551
  0.4995463138904000  0.3318795093815685  0.9981572627192290
  0.6666161520800155  0.4994580787251560 -0.0002285299135535
  0.8325188723734792  0.6660249105398891  0.0009250359974419
 -0.0008184317264170  0.8327071425320677  0.0007862426048089
  0.1659608567825442 -0.0007953025155254  0.3337531733042766
  0.1649019971322581  0.8341216672919275  0.5005508126373499
  0.3318585333335452  0.0018305958151161  0.5003944216303615
  0.1657223226903101  0.6667234640990668  0.6675972027787859
  0.3334196992491375  0.8336147775658191  0.6665860164377952
  0.4995900622573316  0.0018574970762298  0.6681095169474438
  0.1664456816366525  0.4997847344214302  0.8335432100607711
  0.3323802794101945  0.6667373467159292  0.8343094483457409
  0.4994515049750295  0.8341405023002041  0.8351137642833530
  0.6662319675898691 -0.0007771971764711  0.8340241482905726
  0.1660597915911975  0.3328175672345752  0.0001640415247499
  0.3318299976930096  0.4996141717320299 -0.0018368862042691
  0.4994176306954999  0.6666598254060785 -0.0002632382083789
  0.6659941558822092  0.8325847695650225  0.0009136496796260
  0.8326783600901192 -0.0007755612132681  0.0007920563577605
  0.1661049992248065 -0.0001516927010671  0.6671815272814278
  0.1660585717661390  0.8330598434145556  0.8339333866141078
  0.3328040414036708 -0.0001444102917963  0.8338770941186235
  0.1659344177402947  0.6662721412594955  0.0008151561344106
  0.3327549602877208  0.8328245537435910  0.0009668165981990
  0.4994723860667897  0.9991851742311205  0.0008235367565736
  0.1660168914376093 -0.0006048189532506  0.0006013334530493
 
  0.00000000E+00  0.00000000E+00  0.00000000E+00
  0.00000000E+00  0.00000000E+00  0.00000000E+00
  0.00000000E+00  0.00000000E+00  0.00000000E+00
  0.00000000E+00  0.00000000E+00  0.00000000E+00
  0.00000000E+00  0.00000000E+00  0.00000000E+00
  0.00000000E+00  0.00000000E+00  0.00000000E+00
  0.00000000E+00  0.00000000E+00  0.00000000E+00
  0.00000000E+00  0.00000000E+00  0.00000000E+00
  0.00000000E+00  0.00000000E+00  0.00000000E+00
  0.00000000E+00  0.00000000E+00  0.00000000E+00
  0.00000000E+00  0.00000000E+00  0.00000000E+00
  0.00000000E+00  0.00000000E+00  0.00000000E+00
  0.00000000E+00  0.00000000E+00  0.00000000E+00
  0.00000000E+00  0.00000000E+00  0.00000000E+00
  0.00000000E+00  0.00000000E+00  0.00000000E+00
  0.00000000E+00  0.00000000E+00  0.00000000E+00
  0.00000000E+00  0.00000000E+00  0.00000000E+00
  0.00000000E+00  0.00000000E+00  0.00000000E+00
  0.00000000E+00  0.00000000E+00  0.00000000E+00
  0.00000000E+00  0.00000000E+00  0.00000000E+00
  0.00000000E+00  0.00000000E+00  0.00000000E+00
  0.00000000E+00  0.00000000E+00  0.00000000E+00
  0.00000000E+00  0.00000000E+00  0.00000000E+00
  0.00000000E+00  0.00000000E+00  0.00000000E+00
  0.00000000E+00  0.00000000E+00  0.00000000E+00
  0.00000000E+00  0.00000000E+00  0.00000000E+00
  0.00000000E+00  0.00000000E+00  0.00000000E+00
  0.00000000E+00  0.00000000E+00  0.00000000E+00
  0.00000000E+00  0.00000000E+00  0.00000000E+00
  0.00000000E+00  0.00000000E+00  0.00000000E+00
  0.00000000E+00  0.00000000E+00  0.00000000E+00
  0.00000000E+00  0.00000000E+00  0.00000000E+00
  0.00000000E+00  0.00000000E+00  0.00000000E+00
  0.00000000E+00  0.00000000E+00  0.00000000E+00
  0.00000000E+00  0.00000000E+00  0.00000000E+00
  0.00000000E+00  0.00000000E+00  0.00000000E+00
  0.00000000E+00  0.00000000E+00  0.00000000E+00
  0.00000000E+00  0.00000000E+00  0.00000000E+00
  0.00000000E+00  0.00000000E+00  0.00000000E+00
  0.00000000E+00  0.00000000E+00  0.00000000E+00
  0.00000000E+00  0.00000000E+00  0.00000000E+00
  0.00000000E+00  0.00000000E+00  0.00000000E+00
  0.00000000E+00  0.00000000E+00  0.00000000E+00
  0.00000000E+00  0.00000000E+00  0.00000000E+00
  0.00000000E+00  0.00000000E+00  0.00000000E+00
  0.00000000E+00  0.00000000E+00  0.00000000E+00
  0.00000000E+00  0.00000000E+00  0.00000000E+00
  0.00000000E+00  0.00000000E+00  0.00000000E+00
  0.00000000E+00  0.00000000E+00  0.00000000E+00
  0.00000000E+00  0.00000000E+00  0.00000000E+00
  0.00000000E+00  0.00000000E+00  0.00000000E+00
  0.00000000E+00  0.00000000E+00  0.00000000E+00
  0.00000000E+00  0.00000000E+00  0.00000000E+00
  0.00000000E+00  0.00000000E+00  0.00000000E+00
  0.00000000E+00  0.00000000E+00  0.00000000E+00
  0.00000000E+00  0.00000000E+00  0.00000000E+00
  0.00000000E+00  0.00000000E+00  0.00000000E+00
  0.00000000E+00  0.00000000E+00  0.00000000E+00
  0.00000000E+00  0.00000000E+00  0.00000000E+00
  0.00000000E+00  0.00000000E+00  0.00000000E+00
  0.00000000E+00  0.00000000E+00  0.00000000E+00
  0.00000000E+00  0.00000000E+00  0.00000000E+00
  0.00000000E+00  0.00000000E+00  0.00000000E+00
  0.00000000E+00  0.00000000E+00  0.00000000E+00
  0.00000000E+00  0.00000000E+00  0.00000000E+00
  0.00000000E+00  0.00000000E+00  0.00000000E+00
  0.00000000E+00  0.00000000E+00  0.00000000E+00
  0.00000000E+00  0.00000000E+00  0.00000000E+00
  0.00000000E+00  0.00000000E+00  0.00000000E+00
  0.00000000E+00  0.00000000E+00  0.00000000E+00
  0.00000000E+00  0.00000000E+00  0.00000000E+00
  0.00000000E+00  0.00000000E+00  0.00000000E+00
  0.00000000E+00  0.00000000E+00  0.00000000E+00
  0.00000000E+00  0.00000000E+00  0.00000000E+00
  0.00000000E+00  0.00000000E+00  0.00000000E+00
  0.00000000E+00  0.00000000E+00  0.00000000E+00
  0.00000000E+00  0.00000000E+00  0.00000000E+00
  0.00000000E+00  0.00000000E+00  0.00000000E+00
  0.00000000E+00  0.00000000E+00  0.00000000E+00
  0.00000000E+00  0.00000000E+00  0.00000000E+00
  0.00000000E+00  0.00000000E+00  0.00000000E+00
  0.00000000E+00  0.00000000E+00  0.00000000E+00
  0.00000000E+00  0.00000000E+00  0.00000000E+00
  0.00000000E+00  0.00000000E+00  0.00000000E+00
  0.00000000E+00  0.00000000E+00  0.00000000E+00
  0.00000000E+00  0.00000000E+00  0.00000000E+00
  0.00000000E+00  0.00000000E+00  0.00000000E+00
  0.00000000E+00  0.00000000E+00  0.00000000E+00
  0.00000000E+00  0.00000000E+00  0.00000000E+00
  0.00000000E+00  0.00000000E+00  0.00000000E+00
  0.00000000E+00  0.00000000E+00  0.00000000E+00
  0.00000000E+00  0.00000000E+00  0.00000000E+00
  0.00000000E+00  0.00000000E+00  0.00000000E+00
  0.00000000E+00  0.00000000E+00  0.00000000E+00
  0.00000000E+00  0.00000000E+00  0.00000000E+00
  0.00000000E+00  0.00000000E+00  0.00000000E+00
  0.00000000E+00  0.00000000E+00  0.00000000E+00
  0.00000000E+00  0.00000000E+00  0.00000000E+00
  0.00000000E+00  0.00000000E+00  0.00000000E+00
  0.00000000E+00  0.00000000E+00  0.00000000E+00
  0.00000000E+00  0.00000000E+00  0.00000000E+00
  0.00000000E+00  0.00000000E+00  0.00000000E+00
  0.00000000E+00  0.00000000E+00  0.00000000E+00
  0.00000000E+00  0.00000000E+00  0.00000000E+00
  0.00000000E+00  0.00000000E+00  0.00000000E+00
  0.00000000E+00  0.00000000E+00  0.00000000E+00
  0.00000000E+00  0.00000000E+00  0.00000000E+00
  0.00000000E+00  0.00000000E+00  0.00000000E+00
  0.00000000E+00  0.00000000E+00  0.00000000E+00
  0.00000000E+00  0.00000000E+00  0.00000000E+00
  0.00000000E+00  0.00000000E+00  0.00000000E+00
  0.00000000E+00  0.00000000E+00  0.00000000E+00
  0.00000000E+00  0.00000000E+00  0.00000000E+00
  0.00000000E+00  0.00000000E+00  0.00000000E+00
  0.00000000E+00  0.00000000E+00  0.00000000E+00
  0.00000000E+00  0.00000000E+00  0.00000000E+00
  0.00000000E+00  0.00000000E+00  0.00000000E+00
  0.00000000E+00  0.00000000E+00  0.00000000E+00
  0.00000000E+00  0.00000000E+00  0.00000000E+00
  0.00000000E+00  0.00000000E+00  0.00000000E+00
  0.00000000E+00  0.00000000E+00  0.00000000E+00
  0.00000000E+00  0.00000000E+00  0.00000000E+00
  0.00000000E+00  0.00000000E+00  0.00000000E+00
  0.00000000E+00  0.00000000E+00  0.00000000E+00
  0.00000000E+00  0.00000000E+00  0.00000000E+00
  0.00000000E+00  0.00000000E+00  0.00000000E+00
  0.00000000E+00  0.00000000E+00  0.00000000E+00
  0.00000000E+00  0.00000000E+00  0.00000000E+00
  0.00000000E+00  0.00000000E+00  0.00000000E+00
  0.00000000E+00  0.00000000E+00  0.00000000E+00
  0.00000000E+00  0.00000000E+00  0.00000000E+00
  0.00000000E+00  0.00000000E+00  0.00000000E+00
  0.00000000E+00  0.00000000E+00  0.00000000E+00
  0.00000000E+00  0.00000000E+00  0.00000000E+00
  0.00000000E+00  0.00000000E+00  0.00000000E+00
  0.00000000E+00  0.00000000E+00  0.00000000E+00
  0.00000000E+00  0.00000000E+00  0.00000000E+00
  0.00000000E+00  0.00000000E+00  0.00000000E+00
  0.00000000E+00  0.00000000E+00  0.00000000E+00
  0.00000000E+00  0.00000000E+00  0.00000000E+00
  0.00000000E+00  0.00000000E+00  0.00000000E+00
  0.00000000E+00  0.00000000E+00  0.00000000E+00
  0.00000000E+00  0.00000000E+00  0.00000000E+00
  0.00000000E+00  0.00000000E+00  0.00000000E+00
  0.00000000E+00  0.00000000E+00  0.00000000E+00
  0.00000000E+00  0.00000000E+00  0.00000000E+00
  0.00000000E+00  0.00000000E+00  0.00000000E+00
  0.00000000E+00  0.00000000E+00  0.00000000E+00
  0.00000000E+00  0.00000000E+00  0.00000000E+00
  0.00000000E+00  0.00000000E+00  0.00000000E+00
  0.00000000E+00  0.00000000E+00  0.00000000E+00
  0.00000000E+00  0.00000000E+00  0.00000000E+00
  0.00000000E+00  0.00000000E+00  0.00000000E+00
  0.00000000E+00  0.00000000E+00  0.00000000E+00
  0.00000000E+00  0.00000000E+00  0.00000000E+00
  0.00000000E+00  0.00000000E+00  0.00000000E+00
  0.00000000E+00  0.00000000E+00  0.00000000E+00
  0.00000000E+00  0.00000000E+00  0.00000000E+00
  0.00000000E+00  0.00000000E+00  0.00000000E+00
  0.00000000E+00  0.00000000E+00  0.00000000E+00
  0.00000000E+00  0.00000000E+00  0.00000000E+00
  0.00000000E+00  0.00000000E+00  0.00000000E+00
  0.00000000E+00  0.00000000E+00  0.00000000E+00
  0.00000000E+00  0.00000000E+00  0.00000000E+00
  0.00000000E+00  0.00000000E+00  0.00000000E+00
  0.00000000E+00  0.00000000E+00  0.00000000E+00
  0.00000000E+00  0.00000000E+00  0.00000000E+00
  0.00000000E+00  0.00000000E+00  0.00000000E+00
  0.00000000E+00  0.00000000E+00  0.00000000E+00
  0.00000000E+00  0.00000000E+00  0.00000000E+00
  0.00000000E+00  0.00000000E+00  0.00000000E+00
  0.00000000E+00  0.00000000E+00  0.00000000E+00
  0.00000000E+00  0.00000000E+00  0.00000000E+00
  0.00000000E+00  0.00000000E+00  0.00000000E+00
  0.00000000E+00  0.00000000E+00  0.00000000E+00
  0.00000000E+00  0.00000000E+00  0.00000000E+00
  0.00000000E+00  0.00000000E+00  0.00000000E+00
  0.00000000E+00  0.00000000E+00  0.00000000E+00
  0.00000000E+00  0.00000000E+00  0.00000000E+00
  0.00000000E+00  0.00000000E+00  0.00000000E+00
  0.00000000E+00  0.00000000E+00  0.00000000E+00
  0.00000000E+00  0.00000000E+00  0.00000000E+00
  0.00000000E+00  0.00000000E+00  0.00000000E+00
  0.00000000E+00  0.00000000E+00  0.00000000E+00
  0.00000000E+00  0.00000000E+00  0.00000000E+00
  0.00000000E+00  0.00000000E+00  0.00000000E+00
  0.00000000E+00  0.00000000E+00  0.00000000E+00
  0.00000000E+00  0.00000000E+00  0.00000000E+00
  0.00000000E+00  0.00000000E+00  0.00000000E+00
  0.00000000E+00  0.00000000E+00  0.00000000E+00
  0.00000000E+00  0.00000000E+00  0.00000000E+00
  0.00000000E+00  0.00000000E+00  0.00000000E+00
  0.00000000E+00  0.00000000E+00  0.00000000E+00
  0.00000000E+00  0.00000000E+00  0.00000000E+00
  0.00000000E+00  0.00000000E+00  0.00000000E+00
  0.00000000E+00  0.00000000E+00  0.00000000E+00
  0.00000000E+00  0.00000000E+00  0.00000000E+00
  0.00000000E+00  0.00000000E+00  0.00000000E+00
  0.00000000E+00  0.00000000E+00  0.00000000E+00
  0.00000000E+00  0.00000000E+00  0.00000000E+00
  0.00000000E+00  0.00000000E+00  0.00000000E+00
  0.00000000E+00  0.00000000E+00  0.00000000E+00
  0.00000000E+00  0.00000000E+00  0.00000000E+00
  0.00000000E+00  0.00000000E+00  0.00000000E+00
  0.00000000E+00  0.00000000E+00  0.00000000E+00
  0.00000000E+00  0.00000000E+00  0.00000000E+00
  0.00000000E+00  0.00000000E+00  0.00000000E+00
  0.00000000E+00  0.00000000E+00  0.00000000E+00
  0.00000000E+00  0.00000000E+00  0.00000000E+00
  0.00000000E+00  0.00000000E+00  0.00000000E+00
  0.00000000E+00  0.00000000E+00  0.00000000E+00
  0.00000000E+00  0.00000000E+00  0.00000000E+00
  0.00000000E+00  0.00000000E+00  0.00000000E+00
  0.00000000E+00  0.00000000E+00  0.00000000E+00
  0.00000000E+00  0.00000000E+00  0.00000000E+00
  0.00000000E+00  0.00000000E+00  0.00000000E+00
