Unperturbed N(Distort)=4 ~[0.5,0.5,0.5]
1.0
  12.5998379999999983    0.0000000000000004    0.0000000000000004
   0.0000000000000004   12.5998379999999983   -0.0000000000000004
  -0.0000000000000004   -0.0000000000000004   12.5998379999999983
Mg O
109 107
direct
   0.6666666666666666    0.0000000000000000    0.0000000000000000 Mg
   0.8333333333333333    0.1666666666666667    1.0000000000000000 Mg
   0.8333333333333333    1.0000000000000000    0.1666666666666667 Mg
   0.3333333333333333    0.0000000000000000    0.0000000000000000 Mg
   0.5000000000000000    0.1666666666666667    0.0000000000000000 Mg
   0.6666666666666666    0.3333333333333334    0.0000000000000000 Mg
   0.8333333333333333    0.4999999999999999    1.0000000000000000 Mg
   0.5000000000000000    0.0000000000000000    0.1666666666666667 Mg
   0.6666666666666666    0.1666666666666667    0.1666666666666667 Mg
   0.8333333333333333    0.3333333333333333    0.1666666666666667 Mg
   0.6666666666666666    0.0000000000000000    0.3333333333333334 Mg
   0.8333333333333333    0.1666666666666667    0.3333333333333334 Mg
   0.8333333333333333    1.0000000000000000    0.4999999999999999 Mg
   0.0000000000000000    0.0000000000000000    0.0000000000000000 Mg
   0.1666666666666667    0.1666666666666667    0.0000000000000000 Mg
   0.3333333333333333    0.3333333333333334    0.0000000000000000 Mg
   0.5000000000000000    0.5000000000000000    0.0000000000000000 Mg
   0.6666666666666666    0.6666666666666667    0.0000000000000000 Mg
   0.8333333333333333    0.8333333333333333    0.0000000000000000 Mg
   0.1666666666666667    0.0000000000000000    0.1666666666666667 Mg
   0.3333333333333333    0.1666666666666667    0.1666666666666667 Mg
   0.5000000000000000    0.3333333333333334    0.1666666666666667 Mg
   0.6666666666666666    0.5000000000000000    0.1666666666666667 Mg
   0.8333333333333333    0.6666666666666667    0.1666666666666667 Mg
   0.3333333333333333    0.0000000000000000    0.3333333333333334 Mg
   0.5000000000000000    0.1666666666666667    0.3333333333333334 Mg
   0.6666666666666666    0.3333333333333334    0.3333333333333334 Mg
   0.8333333333333333    0.4999999999999999    0.3333333333333334 Mg
   0.5000000000000000    0.0000000000000000    0.5000000000000000 Mg
   0.6666666666666666    0.1666666666666667    0.5000000000000000 Mg
   0.8333333333333333    0.3333333333333333    0.5000000000000000 Mg
   0.6666666666666666    0.0000000000000000    0.6666666666666667 Mg
   0.8333333333333333    0.1666666666666667    0.6666666666666667 Mg
   0.8333333333333333    0.0000000000000000    0.8333333333333333 Mg
   0.0000000000000000    0.3333333333333333    1.0000000000000000 Mg
   0.1666666666666666    0.5000000000000000    0.0000000000000000 Mg
   0.3333333333333333    0.6666666666666666    1.0000000000000000 Mg
   0.4999999999999999    0.8333333333333333    0.0000000000000000 Mg
   0.0000000000000000    0.1666666666666667    0.1666666666666667 Mg
   0.1666666666666667    0.3333333333333333    0.1666666666666667 Mg
   0.3333333333333333    0.5000000000000000    0.1666666666666667 Mg
   0.5000000000000000    0.6666666666666667    0.1666666666666667 Mg
   0.6666666666666666    0.8333333333333333    0.1666666666666667 Mg
   1.0000000000000000    1.0000000000000000    0.3333333333333333 Mg
   0.1666666666666667    0.1666666666666667    0.3333333333333333 Mg
   0.3333333333333333    0.3333333333333334    0.3333333333333333 Mg
   0.5000000000000000    0.5000000000000000    0.3333333333333333 Mg
   0.6666666666666666    0.6666666666666667    0.3333333333333333 Mg
   0.8333333333333333    0.8333333333333333    0.3333333333333333 Mg
   0.1666666666666667    0.0000000000000000    0.5000000000000000 Mg
   0.3333333333333333    0.1666666666666667    0.5000000000000000 Mg
   0.5000000000000000    0.3333333333333334    0.5000000000000000 Mg
   0.6666666666666666    0.5000000000000000    0.5000000000000000 Mg
   0.8333333333333333    0.6666666666666667    0.5000000000000000 Mg
   0.3333333333333334    1.0000000000000000    0.6666666666666666 Mg
   0.5000000000000000    0.1666666666666667    0.6666666666666666 Mg
   0.6666666666666666    0.3333333333333334    0.6666666666666666 Mg
   0.8333333333333333    0.4999999999999999    0.6666666666666666 Mg
   0.5000000000000000    0.0000000000000000    0.8333333333333333 Mg
   0.6666666666666666    0.1666666666666667    0.8333333333333333 Mg
   0.8333333333333333    0.3333333333333334    0.8333333333333333 Mg
   0.0000000000000000    0.6666666666666666    1.0000000000000000 Mg
   0.1666666666666667    0.8333333333333333    0.0000000000000000 Mg
   0.0000000000000000    0.5000000000000000    0.1666666666666667 Mg
   0.1666666666666667    0.6666666666666666    0.1666666666666667 Mg
   0.3333333333333333    0.8333333333333333    0.1666666666666667 Mg
   0.0000000000000000    0.3333333333333333    0.3333333333333333 Mg
   0.1666666666666666    0.5000000000000000    0.3333333333333333 Mg
   0.3333333333333333    0.6666666666666666    0.3333333333333333 Mg
   0.4999999999999999    0.8333333333333333    0.3333333333333333 Mg
   0.0000000000000000    0.1666666666666667    0.5000000000000000 Mg
   0.1666666666666667    0.3333333333333333    0.5000000000000000 Mg
   0.3333333333333333    0.5000000000000000    0.5000000000000000 Mg
   0.5000000000000000    0.6666666666666667    0.5000000000000000 Mg
   0.6666666666666666    0.8333333333333333    0.5000000000000000 Mg
   1.0000000000000000    1.0000000000000000    0.6666666666666666 Mg
   0.1666666666666666    0.1666666666666667    0.6666666666666666 Mg
   0.3333333333333333    0.3333333333333334    0.6666666666666666 Mg
   0.5000000000000000    0.5000000000000000    0.6666666666666666 Mg
   0.6666666666666666    0.6666666666666667    0.6666666666666666 Mg
   0.8333333333333333    0.8333333333333333    0.6666666666666666 Mg
   0.1666666666666667    0.0000000000000000    0.8333333333333333 Mg
   0.3333333333333334    0.1666666666666667    0.8333333333333333 Mg
   0.5000000000000000    0.3333333333333334    0.8333333333333333 Mg
   0.6666666666666666    0.5000000000000000    0.8333333333333333 Mg
   0.8333333333333333    0.6666666666666667    0.8333333333333333 Mg
   1.0000000000000000    0.8333333333333333    0.1666666666666667 Mg
   0.0000000000000000    0.6666666666666666    0.3333333333333334 Mg
   0.1666666666666667    0.8333333333333333    0.3333333333333334 Mg
   0.0000000000000000    0.5000000000000000    0.5000000000000000 Mg
   0.1666666666666667    0.6666666666666666    0.5000000000000000 Mg
   0.3333333333333333    0.8333333333333333    0.5000000000000000 Mg
   1.0000000000000000    0.3333333333333334    0.6666666666666666 Mg
   0.1666666666666666    0.5000000000000000    0.6666666666666666 Mg
   0.3333333333333333    0.6666666666666666    0.6666666666666666 Mg
   0.4999999999999999    0.8333333333333333    0.6666666666666666 Mg
   0.0000000000000000    0.1666666666666667    0.8333333333333333 Mg
   0.1666666666666666    0.3333333333333334    0.8333333333333333 Mg
   0.3333333333333334    0.5000000000000000    0.8333333333333333 Mg
   0.5000000000000000    0.6666666666666667    0.8333333333333333 Mg
   0.6666666666666666    0.8333333333333333    0.8333333333333333 Mg
   1.0000000000000000    0.8333333333333333    0.5000000000000000 Mg
   0.0000000000000000    0.6666666666666666    0.6666666666666666 Mg
   0.1666666666666667    0.8333333333333333    0.6666666666666666 Mg
   0.0000000000000000    0.5000000000000000    0.8333333333333333 Mg
   0.1666666666666667    0.6666666666666666    0.8333333333333333 Mg
   0.3333333333333333    0.8333333333333333    0.8333333333333333 Mg
   0.0000000000000000    0.8333333333333333    0.8333333333333333 Mg
   0.5000000000000000    0.5000000000000000    0.5000000000000000 Mg
   0.8333333333333333    0.1666666666666667    0.1666666666666667 O
   0.0000000000000000    0.3333333333333333    0.1666666666666667 O
   0.0000000000000000    0.1666666666666667    0.3333333333333333 O
   0.5000000000000000    0.1666666666666667    0.1666666666666667 O
   0.6666666666666667    0.3333333333333334    0.1666666666666667 O
   0.8333333333333333    0.4999999999999999    0.1666666666666667 O
   0.0000000000000000    0.6666666666666667    0.1666666666666667 O
   0.6666666666666667    0.1666666666666667    0.3333333333333334 O
   0.8333333333333333    0.3333333333333333    0.3333333333333334 O
   0.0000000000000000    0.4999999999999999    0.3333333333333334 O
   0.8333333333333333    0.1666666666666667    0.5000000000000000 O
   0.0000000000000000    0.3333333333333333    0.5000000000000000 O
   0.0000000000000000    0.1666666666666667    0.6666666666666667 O
   0.1666666666666667    0.1666666666666667    0.1666666666666667 O
   0.3333333333333333    0.3333333333333334    0.1666666666666667 O
   0.5000000000000000    0.5000000000000000    0.1666666666666667 O
   0.6666666666666667    0.6666666666666667    0.1666666666666667 O
   0.8333333333333333    0.8333333333333335    0.1666666666666667 O
   0.0000000000000000    0.0000000000000000    0.1666666666666667 O
   0.3333333333333333    0.1666666666666667    0.3333333333333334 O
   0.5000000000000000    0.3333333333333334    0.3333333333333334 O
   0.6666666666666667    0.5000000000000000    0.3333333333333334 O
   0.8333333333333333    0.6666666666666667    0.3333333333333334 O
   0.0000000000000000    0.8333333333333335    0.3333333333333334 O
   0.5000000000000000    0.1666666666666667    0.5000000000000000 O
   0.6666666666666667    0.3333333333333334    0.5000000000000000 O
   0.8333333333333333    0.4999999999999999    0.5000000000000000 O
   0.0000000000000000    0.6666666666666667    0.5000000000000000 O
   0.6666666666666667    0.1666666666666667    0.6666666666666667 O
   0.8333333333333333    0.3333333333333333    0.6666666666666667 O
   0.0000000000000000    0.4999999999999999    0.6666666666666667 O
   0.8333333333333333    0.1666666666666667    0.8333333333333335 O
   0.0000000000000000    0.3333333333333333    0.8333333333333335 O
   0.0000000000000000    0.1666666666666667    0.0000000000000000 O
   0.1666666666666667    0.5000000000000000    0.1666666666666667 O
   0.3333333333333333    0.6666666666666667    0.1666666666666667 O
   0.4999999999999999    0.8333333333333333    0.1666666666666667 O
   0.6666666666666667    0.0000000000000000    0.1666666666666667 O
   0.1666666666666667    0.3333333333333333    0.3333333333333333 O
   0.3333333333333333    0.5000000000000000    0.3333333333333333 O
   0.5000000000000000    0.6666666666666667    0.3333333333333333 O
   0.6666666666666667    0.8333333333333335    0.3333333333333333 O
   0.8333333333333333    0.0000000000000000    0.3333333333333333 O
   0.1666666666666667    0.1666666666666667    0.5000000000000000 O
   0.3333333333333333    0.3333333333333334    0.5000000000000000 O
   0.6666666666666667    0.6666666666666667    0.5000000000000000 O
   0.8333333333333333    0.8333333333333335    0.5000000000000000 O
   0.0000000000000000    0.0000000000000000    0.5000000000000000 O
   0.3333333333333333    0.1666666666666667    0.6666666666666667 O
   0.5000000000000000    0.3333333333333333    0.6666666666666667 O
   0.6666666666666667    0.5000000000000000    0.6666666666666667 O
   0.8333333333333333    0.6666666666666667    0.6666666666666667 O
   0.0000000000000000    0.8333333333333335    0.6666666666666667 O
   0.5000000000000000    0.1666666666666667    0.8333333333333333 O
   0.6666666666666667    0.3333333333333334    0.8333333333333333 O
   0.8333333333333333    0.5000000000000000    0.8333333333333333 O
   0.0000000000000000    0.6666666666666667    0.8333333333333333 O
   0.6666666666666667    0.1666666666666667    0.0000000000000000 O
   0.8333333333333333    0.3333333333333333    0.0000000000000000 O
   0.0000000000000000    0.5000000000000000    0.0000000000000000 O
   0.1666666666666667    0.8333333333333333    0.1666666666666667 O
   0.3333333333333333    0.0000000000000000    0.1666666666666667 O
   0.1666666666666667    0.6666666666666667    0.3333333333333333 O
   0.3333333333333333    0.8333333333333333    0.3333333333333333 O
   0.4999999999999999    0.0000000000000000    0.3333333333333333 O
   0.1666666666666667    0.5000000000000000    0.5000000000000000 O
   0.3333333333333333    0.6666666666666667    0.5000000000000000 O
   0.4999999999999999    0.8333333333333333    0.5000000000000000 O
   0.6666666666666667    0.0000000000000000    0.5000000000000000 O
   0.1666666666666667    0.3333333333333333    0.6666666666666667 O
   0.3333333333333333    0.5000000000000000    0.6666666666666667 O
   0.5000000000000000    0.6666666666666667    0.6666666666666667 O
   0.6666666666666667    0.8333333333333335    0.6666666666666667 O
   0.8333333333333333    0.0000000000000000    0.6666666666666667 O
   0.1666666666666667    0.1666666666666667    0.8333333333333333 O
   0.3333333333333334    0.3333333333333334    0.8333333333333333 O
   0.5000000000000000    0.5000000000000000    0.8333333333333333 O
   0.6666666666666667    0.6666666666666667    0.8333333333333333 O
   0.8333333333333333    0.8333333333333335    0.8333333333333333 O
   0.0000000000000000    0.0000000000000000    0.8333333333333333 O
   0.3333333333333334    0.1666666666666667    0.0000000000000000 O
   0.5000000000000000    0.3333333333333334    0.0000000000000000 O
   0.6666666666666667    0.5000000000000000    0.0000000000000000 O
   0.8333333333333333    0.6666666666666667    0.0000000000000000 O
   0.0000000000000000    0.8333333333333335    0.0000000000000000 O
   0.1666666666666667    0.0000000000000000    0.3333333333333334 O
   0.1666666666666667    0.8333333333333333    0.5000000000000000 O
   0.3333333333333333    0.0000000000000000    0.5000000000000000 O
   0.1666666666666667    0.6666666666666667    0.6666666666666667 O
   0.3333333333333333    0.8333333333333333    0.6666666666666667 O
   0.4999999999999999    0.0000000000000000    0.6666666666666667 O
   0.1666666666666667    0.5000000000000000    0.8333333333333333 O
   0.3333333333333334    0.6666666666666667    0.8333333333333333 O
   0.5000000000000000    0.8333333333333333    0.8333333333333333 O
   0.6666666666666667    0.0000000000000000    0.8333333333333333 O
   0.1666666666666667    0.3333333333333334    0.0000000000000000 O
   0.3333333333333334    0.5000000000000000    0.0000000000000000 O
   0.5000000000000000    0.6666666666666667    0.0000000000000000 O
   0.6666666666666667    0.8333333333333335    0.0000000000000000 O
   0.8333333333333333    0.0000000000000000    0.0000000000000000 O
   0.1666666666666667    0.0000000000000000    0.6666666666666667 O
   0.1666666666666667    0.8333333333333333    0.8333333333333333 O
   0.3333333333333333    0.0000000000000000    0.8333333333333333 O
   0.1666666666666667    0.6666666666666667    0.0000000000000000 O
   0.3333333333333333    0.8333333333333333    0.0000000000000000 O
   0.5000000000000000    0.0000000000000000    0.0000000000000000 O
   0.1666666666666667    0.0000000000000000    0.0000000000000000 O
