-30.0% N(Distort)=2 ~[0.5,0.5,0.5]
1.0
  12.5998379999999983    0.0000000000000004    0.0000000000000004
   0.0000000000000004   12.5998379999999983   -0.0000000000000004
  -0.0000000000000004   -0.0000000000000004   12.5998379999999983
Mg O
109 107
direct
   0.6719359826099596    0.0164400566803896   -0.0025562813959436 Mg
   0.8333333333333333    0.1666666666666667    1.0000000000000000 Mg
   0.8356993213461827    1.0223522002184962    0.1641323011046227 Mg
   0.3224763702131981    0.0044599364366762   -0.0124259056236310 Mg
   0.5248438668437096    0.1340167727506748    0.0208845527956899 Mg
   0.6714935292382217    0.3457211772833228   -0.0209526067947342 Mg
   0.8290737230186719    0.5128489518682409    0.9753351773185092 Mg
   0.4916111432182905   -0.0188535355206976    0.1598155402881129 Mg
   0.6678441349996687    0.1610208860998654    0.1570750534364992 Mg
   0.8398290960954995    0.3139069218633367    0.1559451496808327 Mg
   0.6529922647312478   -0.0208375328663862    0.3414634871060681 Mg
   0.8295709932304132    0.1694740646100686    0.3225702031494620 Mg
   0.8438246691581212    1.0049874507917271    0.4993959067384242 Mg
  -0.0060384599913551   -0.0042895305374046    0.0075950396061583 Mg
   0.1880051880025044    0.1562276766074148   -0.0159642262614925 Mg
   0.3404997527072530    0.3271115681293351    0.0222514026378674 Mg
   0.5111753266543875    0.5065317459009556   -0.0018258863128983 Mg
   0.6842353568138199    0.6498219874190694   -0.0051952251219566 Mg
   0.8184700487563773    0.8394140996538431    0.0227075764064646 Mg
   0.1388666746502948    0.0021466521400109    0.1431619001206520 Mg
   0.3493054184143907    0.1737531588054656    0.1822851982186216 Mg
   0.4883955996942713    0.3403954911910143    0.1755893241350447 Mg
   0.6562404132720437    0.4936031193415890    0.1469752626387115 Mg
   0.8558700675533080    0.6622823112016623    0.1443390316083256 Mg
   0.3595531779824015    0.0170532082026663    0.3192928198122081 Mg
   0.4968541417277701    0.1951513227379723    0.3431095802288810 Mg
   0.6698101293104718    0.3426477422302008    0.3294769297912727 Mg
   0.8315974005457992    0.5107126094652605    0.3536609140464707 Mg
   0.4983836318370231   -0.0044791990314180    0.5026368741936240 Mg
   0.6736917803464781    0.1636998462849641    0.5153368278692316 Mg
   0.8281244134017258    0.3535853279616241    0.5286613036804330 Mg
   0.6350549474016074    0.0278778624536159    0.6361507255098743 Mg
   0.8039052536122827    0.1742645598563446    0.6726753906097370 Mg
   0.8162621656422656    0.0313671915667326    0.8294024413715189 Mg
   0.0014303792651656    0.3324187995100730    1.0047743255977961 Mg
   0.1766372306940236    0.4871765716288987    0.0091345255674078 Mg
   0.3412665041403294    0.6675661161166255    1.0013150262474144 Mg
   0.5223226050391235    0.8176856401968233    0.0270757039734539 Mg
   0.0029938664623096    0.1717192685024004    0.1758733123523590 Mg
   0.1531748754433282    0.3520391996691922    0.1680444197561091 Mg
   0.3304576043269055    0.5024237157922845    0.1606992501503866 Mg
   0.4982551042506620    0.6970784640839216    0.1709967120607666 Mg
   0.6789159745153581    0.8146365468877038    0.1482212640325313 Mg
   0.9786796274561125    1.0095453761799058    0.3341152896334133 Mg
   0.1688712238847692    0.1803028180363420    0.3489139888359049 Mg
   0.3418196863992302    0.3201274128777550    0.3471892713259130 Mg
   0.4777702082628896    0.4922999066065711    0.3240781706289484 Mg
   0.6519262590413193    0.6525302352956670    0.3031321841618090 Mg
   0.8224309345268653    0.8592900052067465    0.3512106699779224 Mg
   0.1632667474110460    0.0103073662345067    0.5179887493734647 Mg
   0.3407044061245879    0.1815559151765216    0.4694205512589128 Mg
   0.4973851135602552    0.3217707803826210    0.5095853880571897 Mg
   0.6608529775386298    0.4783653386800765    0.4778781216213971 Mg
   0.8539717907190885    0.6458753691679778    0.5138870848698449 Mg
   0.3187803611404224    1.0010348601142809    0.6772339126936919 Mg
   0.4915841515156322    0.1757047246777487    0.6798246883355082 Mg
   0.6804968312738112    0.3244721062183322    0.6657321062330617 Mg
   0.8491959306435189    0.5112919881965289    0.6809951529674279 Mg
   0.5225578151404527   -0.0070387957083063    0.8328691841136142 Mg
   0.6610466876782606    0.1396443290162341    0.8577595877623170 Mg
   0.8545198339560749    0.3434572124865466    0.8335794601628709 Mg
   0.0082129488231223    0.6590773675941083    1.0204485055736305 Mg
   0.1809566219767928    0.8407769689093567   -0.0114527788080860 Mg
   0.0169072003487976    0.5095009709159256    0.1657631525451746 Mg
   0.1544517758363096    0.6627753439963102    0.1643913451650649 Mg
   0.3142423283421682    0.8353831795102014    0.1633399922850681 Mg
   0.0212501313285519    0.3322336024504293    0.3513020431105943 Mg
   0.1703919761975451    0.5128442468086871    0.3201643025240403 Mg
   0.3080088048825338    0.6733950712113549    0.3138156584106290 Mg
   0.5128134401657130    0.8206878467873783    0.3400936941186301 Mg
   0.0171559992319745    0.1851237928508089    0.4794626093933466 Mg
   0.1599800936360309    0.3540227641115833    0.4789644478163778 Mg
   0.3381536400635461    0.5260296145889951    0.4760683256863580 Mg
   0.4920589681986382    0.6441248881051511    0.5165814674482794 Mg
   0.6604407887878101    0.8158357458380245    0.4659151865878115 Mg
   0.9930434826879945    1.0010709237040334    0.6701797003543123 Mg
   0.1544340491069817    0.1612625502226946    0.6486975561574427 Mg
   0.3180956215469130    0.3502966115528455    0.6498733451687424 Mg
   0.4831363483592301    0.4843357670208265    0.6362347415288981 Mg
   0.6811156547449643    0.6576215533049102    0.6656861552594113 Mg
   0.8392947642639789    0.8513686119528872    0.6563937201689349 Mg
   0.1509184752383180   -0.0215070492027848    0.8383130852380234 Mg
   0.3281168919616015    0.1730191710669808    0.8542530911785327 Mg
   0.5090154159726806    0.3476815524602381    0.8211335351320211 Mg
   0.6666627692592985    0.5244688091975673    0.8323627128391338 Mg
   0.8203080531044457    0.6611820172342199    0.8116160314000408 Mg
   1.0087372363329161    0.8406208396773501    0.1593609549279978 Mg
  -0.0057465283424686    0.6497597404894343    0.3372221089337110 Mg
   0.1589553727455697    0.8476314362810525    0.3391733738056193 Mg
  -0.0173950879340776    0.4860806446755807    0.4800645547810086 Mg
   0.1494336718778797    0.6502297455950338    0.4957376933044030 Mg
   0.3542850574924852    0.8342988149178306    0.5059525709035718 Mg
   1.0122395216718667    0.3276422806114168    0.6898923678650117 Mg
   0.1640328139614272    0.4893633971972723    0.6705285686497026 Mg
   0.3165416463404908    0.6734847638704593    0.6560233857181823 Mg
   0.5185652498194550    0.8323257009904381    0.6890221362547264 Mg
   0.0082059670304142    0.1745033875262650    0.8415254717217707 Mg
   0.1597857999583834    0.3272520665424057    0.8396848711192811 Mg
   0.3299844533554717    0.5023395621563546    0.8310951622073476 Mg
   0.5033615250035081    0.7048379196766280    0.8342572259859955 Mg
   0.6535623522063054    0.8261060027403020    0.8227247004442555 Mg
   0.9960284948971398    0.8335593670008875    0.5177080400923232 Mg
  -0.0093700205563892    0.6684425779794876    0.6539514512517742 Mg
   0.1692612507751196    0.8238050354115773    0.6627849759102408 Mg
  -0.0132009757991988    0.4864138673631500    0.8547423364658200 Mg
   0.1621093123691065    0.6465202118690784    0.8343335402739170 Mg
   0.3167190630624059    0.8201106334661949    0.8178132620244981 Mg
   0.0145004294924332    0.8319216301574651    0.8451435435300921 Mg
   0.5130857093397868    0.5118590456254432    0.4824810986813148 Mg
   0.8333333333333333    0.1666666666666667    0.1166681666859526 O
  -0.0112946872536598    0.3430405958270884    0.1598411597277479 O
  -0.0040277836802346    0.1636008904446737    0.3314028778511748 O
   0.4890489138714345    0.1497928593106350    0.1747803156815999 O
   0.6624921345006273    0.3274486551958014    0.1855373923563756 O
   0.8449567764931595    0.4831301294690463    0.1616468041957882 O
  -0.0073892836637119    0.6566038045099754    0.1658791736230838 O
   0.6688643700266764    0.1444278247425066    0.3535942745127461 O
   0.8148507954502059    0.3092832196172364    0.3240324059425048 O
   0.0076552911376878    0.5053084352157380    0.3451620651741496 O
   0.8481206567939890    0.1556661429060624    0.5168114415504812 O
  -0.0119902605573894    0.3488262797914305    0.5180586289840603 O
  -0.0109424344262956    0.1432775628940400    0.6687245462425976 O
   0.1547190934303879    0.1465108800869335    0.1747122809171627 O
   0.3361071825333030    0.3525426365222494    0.1599863762447236 O
   0.4934636697038948    0.4814708052610231    0.1630421290128594 O
   0.6579194241045153    0.6765281295384187    0.1730780183696011 O
   0.8431335590403511    0.8254736235196688    0.1590213545373798 O
  -0.0190620228240779   -0.0082216860991565    0.1628023981199497 O
   0.3135474132223212    0.1707494688458009    0.3244476521554916 O
   0.5183066878613445    0.3405263563081883    0.3193027482013107 O
   0.6951254218481376    0.4899193346553919    0.3482456000188373 O
   0.8453562247551298    0.6727656583561366    0.3195198667784309 O
   0.0176874556895424    0.8242335521574817    0.3593232304108616 O
   0.5092933247709003    0.1671855290869231    0.5084975891918028 O
   0.6617210479124098    0.3338344757051886    0.5005262636346768 O
   0.8413203405593925    0.4950343901006728    0.4860554777388094 O
   0.0129759874549532    0.6826451533340402    0.5031547809711706 O
   0.6650609273233759    0.1611885349046499    0.6576305482598027 O
   0.8381996611390433    0.3532060852465915    0.6717194606812487 O
  -0.0061718548266758    0.5166583342203920    0.6570156067304206 O
   0.8333333333333333    0.1666666666666667    0.8833318333140473 O
  -0.0061709421691964    0.3148030700409566    0.8309380273184606 O
   0.0121694696994809    0.1577097928479823    0.0014525637413547 O
   0.1635331831697070    0.5155893217528241    0.1384674742416991 O
   0.3574112622388301    0.6482899220979715    0.1456899864671805 O
   0.5101387677954894    0.8276937319314612    0.1804126585365146 O
   0.6563401399404030    0.0100120508288139    0.1520847023818490 O
   0.1818645993667988    0.3346427113752850    0.3405114549864718 O
   0.3377612273602858    0.4892868529915787    0.3363864428544771 O
   0.4980174458537727    0.6211793241182306    0.3519170003307148 O
   0.6775263541093169    0.8158061328172335    0.3324553143339878 O
   0.8093116210917148   -0.0014575068677928    0.3291121476396265 O
   0.1934062119295279    0.1783502527480270    0.4894335972217151 O
   0.3347361044439003    0.3748784168267646    0.5099039121519310 O
   0.6765121065549203    0.6733162972383661    0.4972601773152560 O
   0.8205174913657062    0.8250823801896180    0.5136746779449542 O
  -0.0192178513693595   -0.0319750877006427    0.5090979760105403 O
   0.3244034175015384    0.1414897855946994    0.6554569058611073 O
   0.5052670777632712    0.3432594822272175    0.6355500412463432 O
   0.6491150011482818    0.4893491235785856    0.6503828276261966 O
   0.8281901462265638    0.6692357950621096    0.6568307417907213 O
   0.0125238863951146    0.8250200961818087    0.6703516131010163 O
   0.5032318103812867    0.1789205433925659    0.8372110881341546 O
   0.6696312268818423    0.3418961407448206    0.8377403053649746 O
   0.8507253111032378    0.5222577906257075    0.8327466027730679 O
   0.0039030856929489    0.6762375686193444    0.8393640785308220 O
   0.6859107044707090    0.1690552306438470    0.0190265329539666 O
   0.8124203212835713    0.3340860815280817   -0.0054763896592791 O
  -0.0000718310601425    0.4974056621372945    0.0045355898898801 O
   0.1681823546472481    0.8210601316790325    0.1696880957378841 O
   0.3380800438387945    0.0104548638310113    0.1565623595462839 O
   0.1614306538404790    0.6550198823413693    0.3664384019660392 O
   0.2990557434725371    0.8434304571877953    0.3096463951722195 O
   0.5189310627892397    0.0001189264804284    0.3404044248299011 O
   0.1471772161328791    0.5065577598734908    0.5052440866973057 O
   0.3214392670707606    0.6699753278358150    0.5066002373180125 O
   0.5087175674737819    0.8369355472041529    0.5084364412091331 O
   0.6824756732776710    0.0079634925022225    0.5093715768114985 O
   0.1640640071439974    0.3376536170938209    0.6650108777452844 O
   0.3008302375730921    0.5152265635632906    0.6820381101216730 O
   0.4737433520646991    0.6654629183214975    0.6805987344350379 O
   0.6654802046811330    0.8140072781114424    0.6640554922569756 O
   0.8248231564244365    0.0120255198673339    0.6697106869519753 O
   0.1779237994248566    0.1848271943073994    0.8464951643709570 O
   0.3397132137758534    0.3391935465580946    0.8412969394027017 O
   0.4999210995360567    0.4918877840000236    0.8193479474184031 O
   0.6793544962457544    0.6776752642935273    0.8470922333747639 O
   0.8288271589732750    0.8298079923811303    0.8393022668550703 O
  -0.0001513757592394   -0.0273768590092407    0.8162636531821738 O
   0.3288178611573647    0.1684975909181972    0.0069707684222172 O
   0.4939509387463942    0.3523226147503056   -0.0149499505820847 O
   0.6471620609403490    0.4865374346304736    0.0093606785615396 O
   0.8231688690537660    0.6712341570773367   -0.0035575181919879 O
   0.0017430986050921    0.8494705345722638    0.0117907363820598 O
   0.1441899462777749   -0.0044076075769712    0.3276351939526307 O
   0.1944477123565063    0.8223633258924390    0.5059921193849733 O
   0.3074343214598776    0.0049646310018272    0.5235591132421334 O
   0.1825851139050844    0.6612620819681819    0.6429455155372765 O
   0.3294403045503879    0.8268380045120763    0.6661434168358976 O
   0.5166055418727238   -0.0200593220961548    0.6728589426200436 O
   0.1883634576259292    0.4921652696646976    0.8400647627611961 O
   0.3094000866942214    0.6523191386670684    0.8495863938555477 O
   0.5021411693814759    0.8354622643379453    0.8531803009796647 O
   0.6718088174249338   -0.0007119654844014    0.8372122691812957 O
   0.1727433101851245    0.3164224785058128    0.0066742786037062 O
   0.3358980386360064    0.4886200375549133    0.0186418128053673 O
   0.4966947526474901    0.6443053487477509   -0.0087480598585975 O
   0.6589565965219547    0.8558930124371288   -0.0135711739289957 O
   0.8423520676721215    0.0151203407271693    0.0092054547290127 O
   0.1638704212272818   -0.0023682104945691    0.6826328993210377 O
   0.1516761188513557    0.8248104018453725    0.8289059280435369 O
   0.3566457872141580    0.0001201080321534    0.8155211793347656 O
   0.1862487793325031    0.6573997749835340    0.0076084841310087 O
   0.3226249425207879    0.8704382245752839   -0.0012837202936239 O
   0.5058176435494679   -0.0221423696085073    0.0083657897811253 O
   0.1693052414589969    0.0209681225679835   -0.0153929387552948 O
