KPOINTS from doped, with reciprocal_density = 995/Å⁻³
0
Gamma
20 20 12
