30.0% N(Distort)=3 ~[0.5,0.5,0.5]       
   1.00000000000000     
    12.5998379999999983    0.0000000000000004    0.0000000000000004
     0.0000000000000004   12.5998379999999983   -0.0000000000000004
    -0.0000000000000004   -0.0000000000000004   12.5998379999999983
   Mg   O 
   109   107
Direct
  0.6667339352395401  0.0002010512074868  0.0000879247359516
  0.8332530964353483  0.1665217120542944  0.0002286902146915
  0.8332655697505298  0.0003117437894879  0.1664150952240138
  0.3324505964857633  0.0002740210386964  0.0001836393728626
  0.4997481581306546  0.1662255345125760  0.0000854320828157
  0.6668153321170187  0.3327532786016948  0.9992090798887603
  0.8341557904223111  0.5002587083496859 -0.0014053508305449
  0.4997449715230040  0.0001635754093178  0.1661340954983996
  0.6668134369763036  0.1666612937826937  0.1665883471565907
  0.8337337360023294  0.3329548308734540  0.1663398020103969
  0.6668384786796568 -0.0007388049106082  0.3326665506839070
  0.8337431831222815  0.1664255318617689  0.3328517016362566
  0.8341762145360839 -0.0013230510697057  0.5001537174707543
 -0.0004601521941518  0.0002405545881622  0.0001555443602488
  0.1659361155268421  0.1666603654991264  0.0002241742991472
  0.3325891045974630  0.3332650647266513 -0.0007006253519362
  0.4997560617673643  0.5004851941893296 -0.0042145134159783
  0.6669127867444511  0.6676359919487409  0.9982287026835009
  0.8331716133961148  0.8338412473247897 -0.0002472874054242
  0.1659458235931464  0.0003119350352311  0.1665683980511456
  0.3326642601357848  0.1655270605860083  0.1654569354557671
  0.4999829869888055  0.3328116437348592  0.1632881621133209
  0.6727298809731896  0.5001341756723495  0.1588911505669366
  0.8337620570763845  0.6677340251410736  0.1656250447255323
  0.3325885338467812 -0.0006219892026929  0.3331955088504687
  0.4999965944736741  0.1633163415083801  0.3327599041620113
  0.6678912378248224  0.3333583552663920  0.3332730215569381
  0.8342140531327008  0.5004791117830086  0.3320014175788413
  0.4997692144445013  0.9958353187461576  0.5004196059833015
  0.6727795338908938  0.1589337779241117  0.5000309571523371
  0.8342249382998749  0.3321031223094036  0.5003783090626838
  0.6669227750783541 -0.0016898082952486  0.6675490457175017
  0.8337558484674752  0.1657597380072562  0.6676054833004820
  0.8331767277264469 -0.0001325683024987  0.8337408529483594
 -0.0004344003144865  0.3331705345742562  0.0001449490700119
  0.1655299163393050  0.5004234197121341  0.0000239325560680
  0.3320235737659047  0.6675428585877737 -0.0008742553424776
  0.4995410400667345  0.8349106385882625 -0.0014262821482102
 -0.0003695319877108  0.1666620095094025  0.1665668627927424
  0.1648647914227166  0.3333744400205782  0.1654471329732760
  0.3321453612685350  0.5006848483733436  0.1632024427441234
  0.4994056486323294  0.6735785361289922  0.1588184360357627
  0.6670344287521438  0.8345047565728914  0.1656275607575262
 -0.0004312284453423  0.0002525345459199  0.3330678711289382
  0.1648622637771903  0.1655228184110054  0.3332921571245096
  0.3265890804371246  0.3271953308798307  0.3271606361413747
  0.5182875744993481  0.5193426891366179  0.3010290874293889
  0.6703378905111074  0.6710879902702092  0.3327250163057746
  0.8337223014209149  0.8343995918791950  0.3328023535187851
  0.1655361873759646  0.0001067816194725  0.5003454888543649
  0.3321524190975987  0.1632713843172566  0.5006288835643443
  0.5183734862700035  0.3010554341418538  0.5192135311112139
  0.6698083948559058  0.5002062615481823  0.5000826948706213
  0.8327363376054541  0.6675448807092480  0.5001124307104196
  0.3320232979018025  0.9991971926407353  0.6674837367862627
  0.4994131907022550  0.1588897043149582  0.6734815147951426
  0.6703433060241794  0.3328574679004406  0.6709641067099541
  0.8327203690663296  0.5002078015989065  0.6674653826828034
  0.4995505399594176 -0.0013338685251401  0.8348235737970631
  0.6670265662142183  0.1657500094905436  0.8343822039121450
  0.8336987698095204  0.3329082056091993  0.8343096759922757
 -0.0004989653224611  0.6673913196726154  0.0000825455350679
  0.1657922409321231  0.8339445189309511  0.0002374413884390
  0.9994608632512292  0.5004188549323189  0.1661061124951360
  0.1659880646262306  0.6674923616517602  0.1665414063424196
  0.3322188622947944  0.8344905586620862  0.1663098402680126
  0.9987114232276636  0.3332770951033807  0.3331875487023067
  0.1626731679809854  0.5006832559342606  0.3327009014140913
  0.3326640434421549  0.6687370798451114  0.3332207643609675
  0.4997858905822900  0.8349824898597438  0.3320042379154350
 -0.0005275862948593  0.1662070645934491  0.5003398143873322
  0.1626972960161084  0.3327970726965531  0.5005932276842453
  0.3006694005273180  0.5190445942419000  0.5189252210398286
  0.4995055006566528  0.6704908187072867  0.5000937228164299
  0.6668813248734318  0.8333826276538191  0.5001206586738212
 -0.0005032055335837  0.0001937160008084  0.6673117547819967
  0.1659782925107542  0.1666354034561502  0.6674298704835047
  0.3326764142625351  0.3333261179932886  0.6686317881021533
  0.4995159419084713  0.5001824360062308  0.6704170328791529
  0.6660978376527769  0.6667701278478994  0.6666803126588998
  0.8327097693939078  0.8333847923966299  0.6671093083644972
  0.1657873928211164  0.0003167866781766  0.8338783978331415
  0.3322255274396461  0.1664025084504427  0.8343941835966838
  0.4997991528005319  0.3320990701015834  0.8348863720816075
  0.6668764756864740  0.5002092081460232  0.8333189794948124
  0.8326973947232961  0.6672093029272845  0.8332778811792423
 -0.0003684670176487  0.8339198488359645  0.1663922469961722
 -0.0014426004198974  0.6675053714028001  0.3326257667474891
  0.1657144032527016  0.8344335207349115  0.3328245336066913
 -0.0047462721822709  0.5004475032216303  0.5003501447501000
  0.1583489349105558  0.6734176137109320  0.4999952616308939
  0.3313981512391866  0.8349035245977907  0.5003947937441030
  0.9985674208964985  0.3327488302309468  0.6674098990388972
  0.1583410310276564  0.5001099341808644  0.6733242749391227
  0.3321415044947357  0.6710213858395876  0.6709405490204308
  0.4995104445361409  0.8333634165901647  0.6675004486436948
 -0.0003708326000184  0.1665035674816221  0.8338388209800516
  0.1657262383191546  0.3329418204599071  0.8343332462786355
  0.3314033633869073  0.5004809093198124  0.8348248548054745
  0.4995162367225203  0.6675771260816774  0.8332979939570556
  0.6665381352155811  0.8333806472808908  0.8332966314129486
 -0.0019836321358509  0.8348374279801454  0.5001480672972050
 -0.0023556416810708  0.6676049182827088  0.6675048149630388
  0.1650175251066939  0.8344497785662932  0.6676304999379598
 -0.0020042086970336  0.5002534265144650  0.8347490878547711
  0.1650213689561709  0.6677284326928528  0.8343601143766901
  0.3321597470112486  0.8344043549438453  0.8343407870053260
 -0.0008278296525074  0.8338458431899731  0.8337567217765508
  0.4425826837576781  0.4428754111986133  0.4428750317288426
  0.8327953536244206  0.1671657258046819  0.1670620469330024
 -0.0001508848670379  0.3337015201427435  0.1670131097242424
 -0.0001450746654212  0.1671281176072619  0.3335959115135357
  0.4994701207073337  0.1682440906291946  0.1681826819244954
  0.6653167971092762  0.3344829534461197  0.1672185855061100
  0.8340242057917989  0.5002607325626638  0.1654964176422009
 -0.0000983185399715  0.6668667931030791  0.1667554126660829
  0.6653332448953423  0.1672580696779838  0.3343956987146977
  0.8325000476822783  0.3335765311609111  0.3334719272226788
 -0.0014177306298930  0.5002677756624447  0.3329653219701635
  0.8340454043686429  0.1655894428777610  0.5001499032393213
  0.9985948178383263  0.3330585355344231  0.5001946660311236
 -0.0000993903697121  0.1668670174061355  0.6667938749396789
  0.1667891732012394  0.1675281780318510  0.1674392365043414
  0.3337506423608140  0.3344525620383793  0.1669256902376581
  0.5003781469392649  0.5011132491371326  0.1556656771486017
  0.6655900307489255  0.6663619996011478  0.1658599132432905
  0.8329172174898647  0.8336143482786167  0.1665176759762349
 -0.0002572473861325  0.0004476911932607  0.1668845167677402
  0.3337555413805253  0.1669713282581436  0.3343995619318681
  0.4991887636918370  0.3398419243860680  0.3398861000431159
  0.6690720823789379  0.5014929825234397  0.3306008212224177
  0.8331461132394091  0.6672577772707062  0.3328803135107967
 -0.0002827341703859  0.8336597568219100  0.3333540120741509
  0.5003966514814930  0.1556621673864526  0.5010664392620870
  0.6691118362098528  0.3307045103558017  0.5013984544112160
  0.8318995802409075  0.4997567199366754  0.4996565376227127
 -0.0029432537746129  0.6678186585191622  0.5000107169527901
  0.6655886372875185  0.1659849651583004  0.6662409914007054
  0.8331664773416373  0.3330107360813084  0.6671613322336946
  0.9970441881599815  0.5001274791345270  0.6677287423532281
  0.8329095861513272  0.1666392589812454  0.8335152542678784
 -0.0002836809156421  0.3334601971795700  0.8335681245681924
 -0.0002628119482347  0.1669864088246334  0.0003556689271771
  0.1675956053073212  0.5001746975227351  0.1681580900097787
  0.3337747262638630  0.6660565267646206  0.1671796931221384
  0.4995397177930880  0.8347900429084588  0.1654676850957637
  0.6662025926207422  0.0006023410121763  0.1667817504334627
  0.1663635706497663  0.3344745243290013  0.3343984817236043
  0.3395464352354209  0.4998858494322138  0.3399383341326724
  0.5007575445862475  0.6700299962711580  0.3305815885204305
  0.6665552687206356  0.8338914935404420  0.3328960025463605
  0.8330090734739246  0.0004042915639956  0.3333707312483357
  0.1676137715269968  0.1682454458049281  0.5000987121925163
  0.3395232100617713  0.3399931668940176  0.4998079381750747
  0.6650707286487689  0.6657759392256649  0.4990968733471990
  0.8324516141029937  0.8331302588111230  0.4998540414908080
 -0.0002081009344703  0.0004516316949882  0.5000995069017540
  0.3337787643361251  0.1672735206184667  0.6659868768647861
  0.5007604407767351  0.3307041683261835  0.6698958083494533
  0.6650838147324110  0.4992194485088812  0.6656751597263022
  0.8318235639728864  0.6664911221848949  0.6663768741868544
 -0.0009224899363081  0.8335800785159859  0.6667622712648030
  0.4995490414229685  0.1655711637215761  0.8346927049966981
  0.6665515456528945  0.3330114996278611  0.8337997098145778
  0.8324449707922562  0.4999591457267680  0.8330551274952505
 -0.0009245223463975  0.6668661548059163  0.8334648749941329
  0.6661935181287332  0.1668963869110203  0.0005255772757441
  0.8329832298291898  0.3334807810244219  0.0003167027181663
 -0.0002154554683284  0.5001922444724307  0.0003572219655754
  0.1664230350995536  0.8335016870330402  0.1670337204991477
  0.3329647844660357  0.0005606532563797  0.1670465477670786
  0.1666134121490552  0.6659984166444270  0.3343462972633653
  0.3328445418129701  0.8332667323021204  0.3334481942439330
  0.4995746124767856 -0.0007329214734950  0.3329860132438148
  0.1551963144268894  0.5010762056342537  0.5009691965859219
  0.3300452817702143  0.6698634684589907  0.5013425713416801
  0.4990386634616298  0.8325789064563055  0.4996915577376471
  0.6671315819553427 -0.0023244120638713  0.5000699793025135
  0.1666279388881876  0.3344568345476317  0.6659110655557392
  0.3300453057175999  0.5014286538286148  0.6697601538006730
  0.4985068492206727  0.6657345363089024  0.6656572573110876
  0.6657782282121883  0.8324880972898754  0.6664193895031756
  0.8328714025725023 -0.0001968511119207  0.6667660156251600
  0.1664349693433511  0.1671322510502443  0.8334285224705735
  0.3328517246374091  0.3335378734062162  0.8331954730579556
  0.4990426339972341  0.4997675090287345  0.8325122716166407
  0.6657717426557775  0.6665034112705038  0.8324174021204517
  0.8326910713107394  0.8333792611037746  0.8332728942362442
 -0.0004417315645247  0.0002837953057582  0.8335584990512398
  0.3329636342989525  0.1671220036826116  0.0004818748515834
  0.4995571964670000  0.3330677433356173 -0.0007882893301164
  0.6671112288770703  0.5001444278458318  0.9976277653310208
  0.8328632399552263  0.6668586293644732 -0.0003107193831068
  0.9995646983573621  0.8336230221691607  0.0001766011252348
  0.1664174526798295  0.0005187140315196  0.3335917832078077
  0.1649078532767881  0.8346965875713070  0.5001391800294339
  0.3323444301795473  0.9992278870919323  0.5002201826544423
  0.1652871647199263  0.6663234891161564  0.6662162987992430
  0.3322657765361055  0.8338467600850369  0.6671959995082584
  0.4994036962686959 -0.0023452674798288  0.6678137669707719
  0.1648982589081306  0.5002416624521896  0.8346070247853393
  0.3322705255725910  0.6672637649350859  0.8337640188009618
  0.4992247484282517  0.8331535489921456  0.8330698967985005
  0.6661861158371779 -0.0001943702574250  0.8334840802997294
  0.1664114806643890  0.3336845104208848  0.0004362263262390
  0.3323366944680290  0.5002803067898632  0.9991601029936762
  0.4993945981042672  0.6678793522519425 -0.0024050414321571
  0.6661681776161450  0.8335943283862784 -0.0003139049970328
  0.8329424025970944  0.0002860516453581  0.0001784802371999
  0.1661619516312932  0.0005763445861871  0.6668370924723820
  0.1658772998626867  0.8336158577352971  0.8335384907997763
  0.3327286381435158  0.0004114875552391  0.8336528111786253
  0.1661600713850089  0.6669158435224072  0.0004929695255908
  0.3327347024509125  0.8337277056683884  0.0003310996223483
  0.4994812864674831  0.0005025104485989  0.0004000590895414
  0.1662384406260451  0.0004684563589451  0.0003943172900841
 
  0.00000000E+00  0.00000000E+00  0.00000000E+00
  0.00000000E+00  0.00000000E+00  0.00000000E+00
  0.00000000E+00  0.00000000E+00  0.00000000E+00
  0.00000000E+00  0.00000000E+00  0.00000000E+00
  0.00000000E+00  0.00000000E+00  0.00000000E+00
  0.00000000E+00  0.00000000E+00  0.00000000E+00
  0.00000000E+00  0.00000000E+00  0.00000000E+00
  0.00000000E+00  0.00000000E+00  0.00000000E+00
  0.00000000E+00  0.00000000E+00  0.00000000E+00
  0.00000000E+00  0.00000000E+00  0.00000000E+00
  0.00000000E+00  0.00000000E+00  0.00000000E+00
  0.00000000E+00  0.00000000E+00  0.00000000E+00
  0.00000000E+00  0.00000000E+00  0.00000000E+00
  0.00000000E+00  0.00000000E+00  0.00000000E+00
  0.00000000E+00  0.00000000E+00  0.00000000E+00
  0.00000000E+00  0.00000000E+00  0.00000000E+00
  0.00000000E+00  0.00000000E+00  0.00000000E+00
  0.00000000E+00  0.00000000E+00  0.00000000E+00
  0.00000000E+00  0.00000000E+00  0.00000000E+00
  0.00000000E+00  0.00000000E+00  0.00000000E+00
  0.00000000E+00  0.00000000E+00  0.00000000E+00
  0.00000000E+00  0.00000000E+00  0.00000000E+00
  0.00000000E+00  0.00000000E+00  0.00000000E+00
  0.00000000E+00  0.00000000E+00  0.00000000E+00
  0.00000000E+00  0.00000000E+00  0.00000000E+00
  0.00000000E+00  0.00000000E+00  0.00000000E+00
  0.00000000E+00  0.00000000E+00  0.00000000E+00
  0.00000000E+00  0.00000000E+00  0.00000000E+00
  0.00000000E+00  0.00000000E+00  0.00000000E+00
  0.00000000E+00  0.00000000E+00  0.00000000E+00
  0.00000000E+00  0.00000000E+00  0.00000000E+00
  0.00000000E+00  0.00000000E+00  0.00000000E+00
  0.00000000E+00  0.00000000E+00  0.00000000E+00
  0.00000000E+00  0.00000000E+00  0.00000000E+00
  0.00000000E+00  0.00000000E+00  0.00000000E+00
  0.00000000E+00  0.00000000E+00  0.00000000E+00
  0.00000000E+00  0.00000000E+00  0.00000000E+00
  0.00000000E+00  0.00000000E+00  0.00000000E+00
  0.00000000E+00  0.00000000E+00  0.00000000E+00
  0.00000000E+00  0.00000000E+00  0.00000000E+00
  0.00000000E+00  0.00000000E+00  0.00000000E+00
  0.00000000E+00  0.00000000E+00  0.00000000E+00
  0.00000000E+00  0.00000000E+00  0.00000000E+00
  0.00000000E+00  0.00000000E+00  0.00000000E+00
  0.00000000E+00  0.00000000E+00  0.00000000E+00
  0.00000000E+00  0.00000000E+00  0.00000000E+00
  0.00000000E+00  0.00000000E+00  0.00000000E+00
  0.00000000E+00  0.00000000E+00  0.00000000E+00
  0.00000000E+00  0.00000000E+00  0.00000000E+00
  0.00000000E+00  0.00000000E+00  0.00000000E+00
  0.00000000E+00  0.00000000E+00  0.00000000E+00
  0.00000000E+00  0.00000000E+00  0.00000000E+00
  0.00000000E+00  0.00000000E+00  0.00000000E+00
  0.00000000E+00  0.00000000E+00  0.00000000E+00
  0.00000000E+00  0.00000000E+00  0.00000000E+00
  0.00000000E+00  0.00000000E+00  0.00000000E+00
  0.00000000E+00  0.00000000E+00  0.00000000E+00
  0.00000000E+00  0.00000000E+00  0.00000000E+00
  0.00000000E+00  0.00000000E+00  0.00000000E+00
  0.00000000E+00  0.00000000E+00  0.00000000E+00
  0.00000000E+00  0.00000000E+00  0.00000000E+00
  0.00000000E+00  0.00000000E+00  0.00000000E+00
  0.00000000E+00  0.00000000E+00  0.00000000E+00
  0.00000000E+00  0.00000000E+00  0.00000000E+00
  0.00000000E+00  0.00000000E+00  0.00000000E+00
  0.00000000E+00  0.00000000E+00  0.00000000E+00
  0.00000000E+00  0.00000000E+00  0.00000000E+00
  0.00000000E+00  0.00000000E+00  0.00000000E+00
  0.00000000E+00  0.00000000E+00  0.00000000E+00
  0.00000000E+00  0.00000000E+00  0.00000000E+00
  0.00000000E+00  0.00000000E+00  0.00000000E+00
  0.00000000E+00  0.00000000E+00  0.00000000E+00
  0.00000000E+00  0.00000000E+00  0.00000000E+00
  0.00000000E+00  0.00000000E+00  0.00000000E+00
  0.00000000E+00  0.00000000E+00  0.00000000E+00
  0.00000000E+00  0.00000000E+00  0.00000000E+00
  0.00000000E+00  0.00000000E+00  0.00000000E+00
  0.00000000E+00  0.00000000E+00  0.00000000E+00
  0.00000000E+00  0.00000000E+00  0.00000000E+00
  0.00000000E+00  0.00000000E+00  0.00000000E+00
  0.00000000E+00  0.00000000E+00  0.00000000E+00
  0.00000000E+00  0.00000000E+00  0.00000000E+00
  0.00000000E+00  0.00000000E+00  0.00000000E+00
  0.00000000E+00  0.00000000E+00  0.00000000E+00
  0.00000000E+00  0.00000000E+00  0.00000000E+00
  0.00000000E+00  0.00000000E+00  0.00000000E+00
  0.00000000E+00  0.00000000E+00  0.00000000E+00
  0.00000000E+00  0.00000000E+00  0.00000000E+00
  0.00000000E+00  0.00000000E+00  0.00000000E+00
  0.00000000E+00  0.00000000E+00  0.00000000E+00
  0.00000000E+00  0.00000000E+00  0.00000000E+00
  0.00000000E+00  0.00000000E+00  0.00000000E+00
  0.00000000E+00  0.00000000E+00  0.00000000E+00
  0.00000000E+00  0.00000000E+00  0.00000000E+00
  0.00000000E+00  0.00000000E+00  0.00000000E+00
  0.00000000E+00  0.00000000E+00  0.00000000E+00
  0.00000000E+00  0.00000000E+00  0.00000000E+00
  0.00000000E+00  0.00000000E+00  0.00000000E+00
  0.00000000E+00  0.00000000E+00  0.00000000E+00
  0.00000000E+00  0.00000000E+00  0.00000000E+00
  0.00000000E+00  0.00000000E+00  0.00000000E+00
  0.00000000E+00  0.00000000E+00  0.00000000E+00
  0.00000000E+00  0.00000000E+00  0.00000000E+00
  0.00000000E+00  0.00000000E+00  0.00000000E+00
  0.00000000E+00  0.00000000E+00  0.00000000E+00
  0.00000000E+00  0.00000000E+00  0.00000000E+00
  0.00000000E+00  0.00000000E+00  0.00000000E+00
  0.00000000E+00  0.00000000E+00  0.00000000E+00
  0.00000000E+00  0.00000000E+00  0.00000000E+00
  0.00000000E+00  0.00000000E+00  0.00000000E+00
  0.00000000E+00  0.00000000E+00  0.00000000E+00
  0.00000000E+00  0.00000000E+00  0.00000000E+00
  0.00000000E+00  0.00000000E+00  0.00000000E+00
  0.00000000E+00  0.00000000E+00  0.00000000E+00
  0.00000000E+00  0.00000000E+00  0.00000000E+00
  0.00000000E+00  0.00000000E+00  0.00000000E+00
  0.00000000E+00  0.00000000E+00  0.00000000E+00
  0.00000000E+00  0.00000000E+00  0.00000000E+00
  0.00000000E+00  0.00000000E+00  0.00000000E+00
  0.00000000E+00  0.00000000E+00  0.00000000E+00
  0.00000000E+00  0.00000000E+00  0.00000000E+00
  0.00000000E+00  0.00000000E+00  0.00000000E+00
  0.00000000E+00  0.00000000E+00  0.00000000E+00
  0.00000000E+00  0.00000000E+00  0.00000000E+00
  0.00000000E+00  0.00000000E+00  0.00000000E+00
  0.00000000E+00  0.00000000E+00  0.00000000E+00
  0.00000000E+00  0.00000000E+00  0.00000000E+00
  0.00000000E+00  0.00000000E+00  0.00000000E+00
  0.00000000E+00  0.00000000E+00  0.00000000E+00
  0.00000000E+00  0.00000000E+00  0.00000000E+00
  0.00000000E+00  0.00000000E+00  0.00000000E+00
  0.00000000E+00  0.00000000E+00  0.00000000E+00
  0.00000000E+00  0.00000000E+00  0.00000000E+00
  0.00000000E+00  0.00000000E+00  0.00000000E+00
  0.00000000E+00  0.00000000E+00  0.00000000E+00
  0.00000000E+00  0.00000000E+00  0.00000000E+00
  0.00000000E+00  0.00000000E+00  0.00000000E+00
  0.00000000E+00  0.00000000E+00  0.00000000E+00
  0.00000000E+00  0.00000000E+00  0.00000000E+00
  0.00000000E+00  0.00000000E+00  0.00000000E+00
  0.00000000E+00  0.00000000E+00  0.00000000E+00
  0.00000000E+00  0.00000000E+00  0.00000000E+00
  0.00000000E+00  0.00000000E+00  0.00000000E+00
  0.00000000E+00  0.00000000E+00  0.00000000E+00
  0.00000000E+00  0.00000000E+00  0.00000000E+00
  0.00000000E+00  0.00000000E+00  0.00000000E+00
  0.00000000E+00  0.00000000E+00  0.00000000E+00
  0.00000000E+00  0.00000000E+00  0.00000000E+00
  0.00000000E+00  0.00000000E+00  0.00000000E+00
  0.00000000E+00  0.00000000E+00  0.00000000E+00
  0.00000000E+00  0.00000000E+00  0.00000000E+00
  0.00000000E+00  0.00000000E+00  0.00000000E+00
  0.00000000E+00  0.00000000E+00  0.00000000E+00
  0.00000000E+00  0.00000000E+00  0.00000000E+00
  0.00000000E+00  0.00000000E+00  0.00000000E+00
  0.00000000E+00  0.00000000E+00  0.00000000E+00
  0.00000000E+00  0.00000000E+00  0.00000000E+00
  0.00000000E+00  0.00000000E+00  0.00000000E+00
  0.00000000E+00  0.00000000E+00  0.00000000E+00
  0.00000000E+00  0.00000000E+00  0.00000000E+00
  0.00000000E+00  0.00000000E+00  0.00000000E+00
  0.00000000E+00  0.00000000E+00  0.00000000E+00
  0.00000000E+00  0.00000000E+00  0.00000000E+00
  0.00000000E+00  0.00000000E+00  0.00000000E+00
  0.00000000E+00  0.00000000E+00  0.00000000E+00
  0.00000000E+00  0.00000000E+00  0.00000000E+00
  0.00000000E+00  0.00000000E+00  0.00000000E+00
  0.00000000E+00  0.00000000E+00  0.00000000E+00
  0.00000000E+00  0.00000000E+00  0.00000000E+00
  0.00000000E+00  0.00000000E+00  0.00000000E+00
  0.00000000E+00  0.00000000E+00  0.00000000E+00
  0.00000000E+00  0.00000000E+00  0.00000000E+00
  0.00000000E+00  0.00000000E+00  0.00000000E+00
  0.00000000E+00  0.00000000E+00  0.00000000E+00
  0.00000000E+00  0.00000000E+00  0.00000000E+00
  0.00000000E+00  0.00000000E+00  0.00000000E+00
  0.00000000E+00  0.00000000E+00  0.00000000E+00
  0.00000000E+00  0.00000000E+00  0.00000000E+00
  0.00000000E+00  0.00000000E+00  0.00000000E+00
  0.00000000E+00  0.00000000E+00  0.00000000E+00
  0.00000000E+00  0.00000000E+00  0.00000000E+00
  0.00000000E+00  0.00000000E+00  0.00000000E+00
  0.00000000E+00  0.00000000E+00  0.00000000E+00
  0.00000000E+00  0.00000000E+00  0.00000000E+00
  0.00000000E+00  0.00000000E+00  0.00000000E+00
  0.00000000E+00  0.00000000E+00  0.00000000E+00
  0.00000000E+00  0.00000000E+00  0.00000000E+00
  0.00000000E+00  0.00000000E+00  0.00000000E+00
  0.00000000E+00  0.00000000E+00  0.00000000E+00
  0.00000000E+00  0.00000000E+00  0.00000000E+00
  0.00000000E+00  0.00000000E+00  0.00000000E+00
  0.00000000E+00  0.00000000E+00  0.00000000E+00
  0.00000000E+00  0.00000000E+00  0.00000000E+00
  0.00000000E+00  0.00000000E+00  0.00000000E+00
  0.00000000E+00  0.00000000E+00  0.00000000E+00
  0.00000000E+00  0.00000000E+00  0.00000000E+00
  0.00000000E+00  0.00000000E+00  0.00000000E+00
  0.00000000E+00  0.00000000E+00  0.00000000E+00
  0.00000000E+00  0.00000000E+00  0.00000000E+00
  0.00000000E+00  0.00000000E+00  0.00000000E+00
  0.00000000E+00  0.00000000E+00  0.00000000E+00
  0.00000000E+00  0.00000000E+00  0.00000000E+00
  0.00000000E+00  0.00000000E+00  0.00000000E+00
  0.00000000E+00  0.00000000E+00  0.00000000E+00
  0.00000000E+00  0.00000000E+00  0.00000000E+00
  0.00000000E+00  0.00000000E+00  0.00000000E+00
  0.00000000E+00  0.00000000E+00  0.00000000E+00
  0.00000000E+00  0.00000000E+00  0.00000000E+00
  0.00000000E+00  0.00000000E+00  0.00000000E+00
  0.00000000E+00  0.00000000E+00  0.00000000E+00
  0.00000000E+00  0.00000000E+00  0.00000000E+00
  0.00000000E+00  0.00000000E+00  0.00000000E+00
  0.00000000E+00  0.00000000E+00  0.00000000E+00
  0.00000000E+00  0.00000000E+00  0.00000000E+00
  0.00000000E+00  0.00000000E+00  0.00000000E+00
  0.00000000E+00  0.00000000E+00  0.00000000E+00
