30.0% N(Distort)=3 ~[0.5,0.5,0.5]
1.0
  12.5998379999999983    0.0000000000000004    0.0000000000000004
   0.0000000000000004   12.5998379999999983   -0.0000000000000004
  -0.0000000000000004   -0.0000000000000004   12.5998379999999983
Mg O
109 107
direct
   0.6719359826099596    0.0164400566803896   -0.0025562813959436 Mg
   0.8333333333333333    0.1666666666666667    1.0000000000000000 Mg
   0.8356993213461827    1.0223522002184962    0.1641323011046227 Mg
   0.3224763702131981    0.0044599364366762   -0.0124259056236310 Mg
   0.5248438668437096    0.1340167727506748    0.0208845527956899 Mg
   0.6714935292382217    0.3457211772833228   -0.0209526067947342 Mg
   0.8290737230186719    0.5128489518682409    0.9753351773185092 Mg
   0.4916111432182905   -0.0188535355206976    0.1598155402881129 Mg
   0.6678441349996687    0.1610208860998654    0.1570750534364992 Mg
   0.8398290960954995    0.3139069218633367    0.1559451496808327 Mg
   0.6529922647312478   -0.0208375328663862    0.3414634871060681 Mg
   0.8404997527072530    0.1604449014626683    0.3555847359712007 Mg
   0.8445086599877208    1.0065317459009557    0.4981741136871017 Mg
   0.0175686901471532   -0.0168446792475973   -0.0051952251219566 Mg
   0.1892034008866413    0.1622823112016622   -0.0223276350583411 Mg
   0.3595531779824015    0.3503865415359997   -0.0140405135211253 Mg
   0.4968541417277701    0.5284846560713058    0.0097762468955476 Mg
   0.6698101293104718    0.6759810755635343   -0.0038564035420607 Mg
   0.8315974005457992    0.8440459427985940    0.0203275807131374 Mg
   0.1650502985036897   -0.0044791990314180    0.1693035408602907 Mg
   0.3403584470131448    0.1636998462849641    0.1820034945358983 Mg
   0.4947910800683926    0.3535853279616242    0.1953279703470997 Mg
   0.6350549474016074    0.5278778624536159    0.1361507255098742 Mg
   0.8039052536122827    0.6742645598563447    0.1726753906097369 Mg
   0.3162621656422655    0.0313671915667326    0.3294024413715189 Mg
   0.5014303792651656    0.1657521328434063    0.3381076589311295 Mg
   0.6766372306940236    0.3205099049622320    0.3424678589007412 Mg
   0.8412665041403294    0.5008994494499588    0.3346483595807478 Mg
   0.5223226050391236   -0.0156476931365099    0.5270757039734539 Mg
   0.6696605331289763    0.1717192685024004    0.5092066456856924 Mg
   0.8198415421099949    0.3520391996691921    0.5013777530894424 Mg
   0.6637909376602388    0.0024237157922845    0.6606992501503867 Mg
   0.8455826411820249    0.1479698802210372    0.6482212640325313 Mg
   0.8120129607894457    0.0095453761799057    0.8341152896334134 Mg
   0.0022045572181026    0.3469694847030086    1.0155806555025717 Mg
   0.1751530197325634    0.4867940795444217    0.0138559379925797 Mg
   0.3111035415962229    0.6589665732732377    0.9907448372956151 Mg
   0.4852595923746524    0.8191969019623336   -0.0302011491715243 Mg
  -0.0109023988064680    0.1926233385400799    0.1845440033112558 Mg
   0.1632667474110459    0.3436406995678400    0.1846554160401313 Mg
   0.3407044061245879    0.5148892485098548    0.1360872179255795 Mg
   0.4973851135602552    0.6551041137159542    0.1762520547238563 Mg
   0.6608529775386298    0.8116986720134098    0.1445447882880637 Mg
   1.0206384573857552    0.9792087025013111    0.3472204182031782 Mg
   0.1521136944737557    0.1677015267809475    0.3439005793603586 Mg
   0.3249174848489655    0.3423713913444155    0.3464913550021750 Mg
   0.5138301646071447    0.4911387728849989    0.3323987728997284 Mg
   0.6825292639768522    0.6779586548631957    0.3476618196340946 Mg
   0.8558911484737861    0.8262945376250270    0.3328691841136143 Mg
   0.1610466876782606   -0.0270223376504325    0.5244262544289837 Mg
   0.3545198339560748    0.1767905458198799    0.5002461268295375 Mg
   0.5082129488231223    0.3257440342607751    0.5204485055736305 Mg
   0.6809566219767927    0.5074436355760235    0.4885472211919140 Mg
   0.8502405336821309    0.6761676375825922    0.4990964858785080 Mg
   0.3211184425029764    0.9961086773296437    0.6643913451650648 Mg
   0.4809089950088350    0.1687165128435347    0.6633399922850680 Mg
   0.6879167979952184    0.3322336024504293    0.6846353764439276 Mg
   0.8370586428642118    0.5128442468086870    0.6534976358573735 Mg
   0.4746754715492006    0.0067284045446882    0.8138156584106290 Mg
   0.6794801068323797    0.1540211801207116    0.8400936941186301 Mg
   0.8504893325653078    0.3517904595174756    0.8127959427266799 Mg
  -0.0066865730306358    0.6873560974449168    0.9789644478163778 Mg
   0.1714869733968794    0.8593629479223285   -0.0239316743136420 Mg
  -0.0079410318013618    0.4774582214384844    0.1832481341149459 Mg
   0.1604407887878102    0.6491690791713578    0.1325818532544782 Mg
   0.3263768160213278    0.8344042570373666    0.1701797003543124 Mg
  -0.0122326175596849    0.3279292168893613    0.3153642228241095 Mg
   0.1514289548802463    0.5169632782195120    0.3165400118354091 Mg
   0.3164696816925634    0.6510024336874931    0.3029014081955648 Mg
   0.5144489880782975    0.8242882199715768    0.3323528219260781 Mg
   0.0059614309306455    0.1847019452862206    0.4897270535022683 Mg
   0.1509184752383180    0.3118262841305485    0.5049797519046900 Mg
   0.3281168919616013    0.5063525044003142    0.5209197578451994 Mg
   0.5090154159726806    0.6810148857935714    0.4878002017986878 Mg
   0.6666627692592985    0.8578021425309007    0.4990293795058005 Mg
   0.9869747197711123    0.9945153505675531    0.6449493647333741 Mg
   0.1754039029995827    0.1739541730106836    0.6593609549279976 Mg
   0.3275868049908647    0.3164264071561010    0.6705554422670443 Mg
   0.4922887060789031    0.5142981029477193    0.6725067071389524 Mg
   0.6492715787325890    0.6527473113422474    0.6467312214476751 Mg
   0.8161003385445463    0.8168964122617005    0.6624043599710695 Mg
   0.1876183908258186    0.0009654815844973    0.8392859042369051 Mg
   0.3455728550052003    0.1609756139447501    0.8565590345316785 Mg
   0.4973661472947607    0.3226967305306058    0.8371952353163693 Mg
   0.6498749796738240    0.5068180972037928    0.8226900523848490 Mg
   0.8518985831527884    0.6656590343237715    0.8556888029213932 Mg
   1.0082059670304144    0.8411700541929316    0.1748588050551041 Mg
  -0.0068808667082832    0.6605853998757388    0.3396848711192811 Mg
   0.1633177866888050    0.8356728954896878    0.3310951622073476 Mg
   0.0033615250035080    0.5381712530099612    0.5009238926526621 Mg
   0.1535623522063055    0.6594393360736353    0.4893913671109221 Mg
   0.3293618282304731    0.8335593670008875    0.5177080400923232 Mg
   0.9906299794436109    0.3351092446461543    0.6539514512517742 Mg
   0.1692612507751195    0.4904717020782440    0.6627849759102408 Mg
   0.3201323575341344    0.6530805340298166    0.6880756697991532 Mg
   0.4954426457024396    0.8131868785357451    0.6676668736072503 Mg
  -0.0166142702709275    0.1534439667995282    0.8178132620244981 Mg
   0.1811670961590998    0.3319216301574654    0.8451435435300921 Mg
   0.3464190426731202    0.5118590456254432    0.8158144320146481 Mg
   0.4951556917461579    0.6336157981519888    0.8249805595411733 Mg
   0.6352543833724364    0.8271319573754511    0.8033572386526637 Mg
   0.9887053127463402    0.8430405958270883    0.4931744930610812 Mg
  -0.0040277836802346    0.6636008904446736    0.6647362111845081 Mg
   0.1557155805381011    0.8164595259773016    0.6747803156815998 Mg
  -0.0041745321660395    0.4941153218624681    0.8522040590230423 Mg
   0.1782901098264928    0.6497967961357131    0.8283134708624548 Mg
   0.3259440496696214    0.8232704711766419    0.8325458402897504 Mg
   0.0021977033600097    0.8110944914091732    0.8535942745127459 Mg
   0.4815174621168726    0.4759498862839032    0.4906990726091714 Mg
   0.8333333333333333    0.1666666666666667    0.2166694524167692 O
   0.0076552911376878    0.3386417685490714    0.1784953985074830 O
   0.0147873234606556    0.1556661429060623    0.3501447748838145 O
   0.4880097394426106    0.1821596131247638    0.1847252956507270 O
   0.6557242322403711    0.3099442295607067    0.1687245462425975 O
   0.8213857600970544    0.4798442134202667    0.1747122809171627 O
   0.0027738491999697    0.6858759698555827    0.1599863762447236 O
   0.6601303363705615    0.1481374719276897    0.3297087956795262 O
   0.8245860907711819    0.3431947962050852    0.3397446850362678 O
   0.0098002257070179    0.4921402901863353    0.3256880212040464 O
   0.8336844633329102    0.1748946083104577    0.5081221573384033 O
  -0.0234370300243653    0.3562102465242549    0.4720844285540062 O
   0.0120991903197232    0.1645231180193404    0.6768286129619070 O
   0.1538223213984358    0.1788359839710113    0.1720722341963085 O
   0.3190763726055163    0.3309164844350110    0.1746498473013792 O
   0.4802140798889879    0.5040828021791343    0.1577809854888249 O
   0.6617210479124098    0.6671678090385221    0.1671929303013434 O
   0.8413203405593925    0.8283677234340064    0.1527221444054760 O
   0.0129759874549532    0.0159784866673735    0.1698214476378372 O
   0.3381996611390434    0.1865394185799249    0.3383861273479152 O
   0.4618135973380825    0.3594046337725614    0.3150739327554294 O
   0.6604948118399909    0.5166583342203921    0.3236822733970873 O
   0.8499928886782567    0.6320724554626302    0.3451696724449211 O
   0.0003810961569495    0.8497446944304443    0.3092901946709438 O
   0.4995977272227937    0.1915780180499058    0.4752032575512491 O
   0.6588873307936187    0.3198549142853927    0.4837665771978473 O
   0.8271623911641369    0.4814697367076230    0.4976046939851271 O
  -0.0031334834969596    0.6822559884194909    0.4718008075750324 O
   0.6907445955721636    0.1482899220979715    0.6456899864671806 O
   0.8434721011288229    0.3276937319314611    0.6804126585365147 O
  -0.0103265267262638    0.5100120508288138    0.6520847023818491 O
   0.8333333333333333    0.1666666666666667    0.7833305475832310 O
  -0.0173107183330004    0.3241063981851119    0.8706907312582028 O
   0.0500027857501025    0.1666666666666667   -0.0000000000000000 O
   0.1818645993667987    0.5013093780419517    0.1738447883198052 O
   0.3377612273602858    0.6559535196582453    0.1697197761878105 O
   0.4980174458537725    0.7878459907848973    0.1852503336640482 O
   0.6606875843134585    0.0241319671711413    0.1780689719757062 O
   0.1775263541093169    0.3158061328172333    0.3324553143339878 O
   0.3166752240577021    0.4921165836862914    0.3139219665226690 O
   0.4759782877583816    0.6652091597988740    0.3291121476396265 O
   0.6934062119295279    0.8450169194146937    0.3227669305550483 O
   0.8431787732215870    0.0066496305716993    0.3305935106485892 O
   0.1538508246990396    0.1584157135229512    0.5136746779449542 O
   0.3244034175015384    0.3081564522613661    0.4887902391944405 O
   0.6491150011482818    0.6560157902452524    0.4837161609595299 O
   0.8281901462265638    0.8359024617287764    0.4901640751240546 O
   0.0125238863951146   -0.0083132371515248    0.5036849464343495 O
   0.3365651437146200    0.1789205433925660    0.6705444214674880 O
   0.5050353061212509    0.3480292355518405    0.7044207040641504 O
   0.6696312268818423    0.5085628074114872    0.6710736386983079 O
   0.8507253111032378    0.6889244572923743    0.6660799361064014 O
   0.0039030856929489    0.8429042352860111    0.6726974118641554 O
   0.4816658867670371    0.1616538380276387    0.8386296847494107 O
   0.6457536546169047    0.3340860815280819    0.8278569436740543 O
   0.8332615022731910    0.4974056621372945    0.8378689232232135 O
   0.0015156879805814    0.6543934650123659    0.8363547624045508 O
   0.6714133771721279    0.1771215304976780   -0.0101043071203828 O
   0.8280973205071456    0.3216865490080359    0.0331050686327060 O
   0.0172512727045965    0.5045533198337806    0.0082897187215409 O
   0.1855977294559064    0.8334522598137617    0.1737377581632344 O
   0.3138438827995457    0.0065577598734908    0.1719107533639724 O
   0.1547726004040940    0.6699753278358150    0.3399335706513458 O
   0.3420509008071153    0.8369355472041529    0.3417697745424664 O
   0.5158090066110043    0.0079634925022225    0.3427049101448318 O
   0.1640640071439974    0.5043202837604875    0.4983442110786177 O
   0.3008302375730921    0.6818932302299573    0.5153714434550063 O
   0.4737433520646989    0.8321295849881641    0.5139320677683712 O
   0.7015836957490764    0.0214329664292188    0.4793201839028371 O
   0.1581564897577699    0.3453588532006672    0.6697106869519753 O
   0.3445904660915232    0.5181605276407327    0.6798284977042903 O
   0.5063798804425199    0.6725268798914278    0.6746302727360350 O
   0.6665877662027234    0.8252211173333570    0.6526812807517366 O
   0.8460211629124210    0.0110085976268606    0.6804255667080974 O
   0.1621604923066084    0.1631413257144635    0.8393022668550703 O
   0.3345517918896663    0.2951607511971162    0.8321174864666241 O
   0.4998486242407607    0.4726231409907594    0.8162636531821738 O
   0.6621511944906980    0.6684975909181973    0.8403041017555505 O
   0.8272842720797275    0.8523226147503057    0.8183833827512486 O
  -0.0195046057263177   -0.0134625653695265    0.8426940118948729 O
   0.3381793792001711    0.1746272719466311    0.0145593004740236 O
   0.4934552195581727    0.3156696266732860   -0.0141745222046229 O
   0.6565022023870994    0.5045674904106699   -0.0035575181919879 O
   0.8350764319384254    0.6828038679055971    0.0117907363820598 O
  -0.0224767203888918    0.8289257257563623   -0.0056981393807026 O
   0.1825851139050844   -0.0054045846984849    0.3096121822039432 O
   0.1627736378837214    0.8268380045120763    0.4994767501692308 O
   0.3403993583400001   -0.0093837016354730    0.4881360745173510 O
   0.1832722085393905    0.6466073445705119    0.6728589426200436 O
   0.3550301242925957    0.8254986029980309    0.6733980960945295 O
   0.4781585605879243    0.0305757321179509    0.6647916733259096 O
   0.1427334200275545    0.4856524720004016    0.8495863938555477 O
   0.3354745027148093    0.6687955976712788    0.8531803009796647 O
   0.5060766435184578    0.8164224785058127    0.8400076119370394 O
   0.6692313719693397   -0.0113799624450867    0.8519751461387006 O
   0.1633614193141568    0.3109720154144174   -0.0087480598585975 O
   0.3256232631886213    0.5225596791037954   -0.0135711739289957 O
   0.5116171587792182    0.6559476042385287    0.0463082086378943 O
   0.6756854010054548    0.8484536740605028    0.0092054547290128 O
   0.8305370878939484   -0.0023682104945691    0.0159662326543710 O
   0.1516761188513557   -0.0085229314879608    0.6622392613768704 O
   0.1899791205474912    0.8334534413654866    0.8155211793347656 O
   0.3226249425207880    0.0371048912419505    0.8320496130397095 O
   0.1693052414589969    0.6876347892346504   -0.0153929387552948 O
   0.3110077910015177    0.8195017286871461   -0.0097960091518821 O
   0.5089821961281255   -0.0066921596605788   -0.0252346640438517 O
   0.1767012123938654    0.0102873179144752   -0.0122037897577353 O
