-50.0% N(Distort)=1 ~[0.5,0.5,0.5]      
   1.00000000000000     
    12.5998379999999983    0.0000000000000004    0.0000000000000004
     0.0000000000000004   12.5998379999999983   -0.0000000000000004
    -0.0000000000000004   -0.0000000000000004   12.5998379999999983
   Mg   O 
   109   107
Direct
  0.6666630461019927 -0.0004147835489441  0.0000512318497336
  0.8332550566108256  0.1658592500256796  0.0001513378421785
  0.8330783315854181 -0.0004594726253153  0.1664070222171236
  0.3322020134539047 -0.0004115885187588  0.0000659435441339
  0.4994466196360076  0.1647541859761618 -0.0013841732277174
  0.6670585810205042  0.3321422777747262  0.9989237677082040
  0.8336458952855765  0.4993751740053702 -0.0001698013597634
  0.4992817374093322 -0.0001926079988399  0.1658974324144454
  0.6668602055015980  0.1653905344228812  0.1662085494876984
  0.8330880350107663  0.3322882769251088  0.1664428484890932
  0.6664935367745390  0.0006606962707881  0.3329628069861962
  0.8333253463489992  0.1653754252131993  0.3326217065267563
  0.8335902840692930 -0.0001894852350960  0.5001891359019358
 -0.0005181048486571 -0.0004062872741550  0.0000768279474363
  0.1658246028365252  0.1659265249335466 -0.0002301478522218
  0.3319919551332202  0.3321104562445965 -0.0017900268670822
  0.4992144785419833  0.4993113132996983  0.9954675927273127
  0.6665527953420408  0.6666314663383470 -0.0010554425167761
  0.8331070309007478  0.8332148072772709  0.0000822987108133
  0.1657837784830277 -0.0005128617044216  0.1662633367059800
  0.3319237845992917  0.1653712292474448  0.1656349378549328
  0.4996932126306358  0.3262480416714861  0.1580144957029212
  0.6672665214657953  0.4990793484287031  0.1615994288392751
  0.8342814333666708  0.6664980616069772  0.1651848742258766
  0.3320787177380519  0.0007015314413214  0.3324552121090693
  0.4991506029358153  0.1644115775877946  0.3315652553429660
  0.6664275570070481  0.3309479505363963  0.3331020520510650
  0.8378956076207834  0.4990788300682910  0.3322210306679970
  0.4992030908783572  0.0040424178251812  0.5002765615427618
  0.6679579049732971  0.1643984167571388  0.5003310600757001
  0.8415137302375680  0.3262357377373560  0.4998221300265976
  0.6670208190947403  0.0006912079040674  0.6674027692623198
  0.8338502145504402  0.1653701832405274  0.6675903527311148
  0.8332358349104918 -0.0004951055306658  0.8337541943856567
 -0.0005203905091010  0.3322869416173766  0.0000483399842881
  0.1645911172892246  0.4995486860145804 -0.0014349141724371
  0.3320678790988105  0.6671764673123091 -0.0011519037369952
  0.4993077045586773  0.8337631110991288 -0.0002018528640984
 -0.0006142104432582  0.1658523984789700  0.1662858901510889
  0.1652272206400775  0.3320097090277039  0.1656140961928936
  0.3259544751370891  0.4998121841523511  0.1578726224626944
  0.4989773545029320  0.6673668825275343  0.1614547624407028
  0.6663925882733116  0.8343544433462977  0.1652178073540877
  0.9994458037412862 -0.0004400124679595  0.3328266674226998
  0.1652564588932494  0.1653589028658002  0.3325835395990382
  0.3288678742839683  0.3290563426689529  0.3328474009656793
  0.4813215394985579  0.4819176548492581  0.2976600922647559
  0.6727494870335144  0.6727343980278206  0.3267337587753606
  0.8342540670976976  0.8343524048977774  0.3330653462034408
  0.1646433139424725  0.0010151492313039  0.5000471651170521
  0.3313127307141476  0.1653861637913101  0.5001110454466245
  0.4988803878150901  0.3222489784597474  0.5006424649826159
  0.7018124142683662  0.4819615730715548  0.5180760377474796
  0.8379864873248097  0.6674104574065437  0.5005161345276112
  0.3319688468764783  0.0013827135543204  0.6675262981454194
  0.4993759934332673  0.1653788523236670  0.6681620117869433
  0.6666656884595306  0.3290554242428425  0.6705716772443879
  0.8416121980866439  0.4998153945704737  0.6734881802314494
  0.4994485347109833  0.0009969902188273  0.8348541309981772
  0.6669156355736077  0.1653714480827305  0.8342236939080155
  0.8338943439691894  0.3320102224533703  0.8342758801073163
 -0.0005115418234937  0.6667709358742947  0.0000340165918910
  0.1657686990246696  0.8333712754744458  0.0001410542053088
 -0.0003337586173627  0.4993844026196110  0.1658725069167462
  0.1652033308222691  0.6669810798895180  0.1661313455808163
  0.3321802104077662  0.8331887442815267  0.1664029034799241
  0.0005876036718752  0.3321538806703426  0.3324643374435490
  0.1641999758594317  0.4992609762084508  0.3315251472500034
  0.3306671999773864  0.6665081075425380  0.3330654819912627
  0.4989708230311852  0.8379997376317233  0.3322206549204809
  0.0009102979677965  0.1647316216023118  0.5000639430499119
  0.1652831350224889  0.3313964930268747  0.5001366152765732
  0.3220880401761284  0.4990379301475859  0.5006059613455304
  0.4818203784879818  0.7015384226421139  0.5177077461109737
  0.6672846394170656  0.8380039823954438  0.5005039815638068
  0.9994662289811929 -0.0003927651136415  0.6673352348916055
  0.1661214557136829  0.1662326517797988  0.6672515837774693
  0.3325198207727071  0.3326472593623193  0.6669953954038330
  0.4989123115534735  0.4990344159655499  0.6774151052827445
  0.6664402307935771  0.6664973182206906  0.6688240812270730
  0.8331041641869374  0.8332143614180404  0.6673272884357501
  0.1658016610388256 -0.0000852524807848  0.8337592795833871
  0.3322891445349831  0.1662444775173051  0.8333924549084125
  0.4994038154485668  0.3314167510860708  0.8342186582547655
  0.6680104482618709  0.4992637732906670  0.8352951731522568
  0.8333705472240575  0.6669984259055276  0.8342738787920703
 -0.0005765142800883  0.8332062355835239  0.1663852458357231
  0.0005453613892564  0.6666305776600594  0.3329515552616454
  0.1652472105685371  0.8334522348396839  0.3326147774087763
  0.0040290946263642  0.4993239979376855  0.5003023170494355
  0.1642526944101044  0.6681060655389275  0.5003394047315798
  0.3261204550198393  0.8415299108807228  0.4998077376699673
  0.0012953667271787  0.3320758436478753  0.6675478550958972
  0.1652989111702193  0.4995089625314912  0.6681749881132055
  0.3289504365390650  0.6668211989694119  0.6705441023307407
  0.4996853347678270  0.8415458038472459  0.6733383130698994
 -0.0002309044454249  0.1659143989325374  0.8337477381488523
  0.1661441488823344  0.3324013587889428  0.8333856685764280
  0.3313012995511225  0.4995362695787025  0.8341864628726764
  0.4991779170889554  0.6681090140271790  0.8352343679054236
  0.6668713980298620  0.8334584875916482  0.8342432397272238
 -0.0003021137412688  0.8337717007585050  0.5002031187696987
  0.0006344452356738  0.6671736014113372  0.6674326080692347
  0.1652359817264526  0.8340346174533196  0.6675923659794786
  0.0009387575857115  0.4995505264497572  0.8348948071263246
  0.1652922466388872  0.6670508009510172  0.8342151790664060
  0.3319132246083877  0.8340180274881943  0.8342551081811173
 -0.0005983199737243  0.8333789539446940  0.8337872780277136
  0.5572821947622076  0.5567868587836604  0.4421906523944018
  0.8322957453498058  0.1665478843733555  0.1671937526546186
 -0.0009674106814672  0.3330688369410874  0.1669135941732538
 -0.0008100906357355  0.1662423164381111  0.3333891747340314
  0.4994728584509432  0.1656845231334126  0.1660300070266815
  0.6647083037995576  0.3343401436595250  0.1676389842541470
  0.8309519885659387  0.4997234737313536  0.1685447963065406
 -0.0008923808959470  0.6659878119333152  0.1671219054048679
  0.6656922459869464  0.1671393552609939  0.3338013116229678
  0.8318831056834310  0.3343446111237621  0.3347801645410609
  0.0006439131517541  0.4995652076741223  0.3327126222569936
  0.8334621955164991  0.1656832881423650  0.5000024393665097
  0.0018868985535067  0.3318553530885546  0.4999247780723012
 -0.0003181997720127  0.1663702577699770  0.6665394158507079
  0.1663438342575937  0.1664279604076282  0.1666694424462762
  0.3341700071783069  0.3343276883901770  0.1665751031289865
  0.4990576836388426  0.4992069299173679  0.1540376688352575
  0.6646728680403955  0.6647920435560905  0.1673845679229176
  0.8318970669153559  0.8320012782441101  0.1675828658629080
  0.9992153746307059 -0.0006813598790190  0.1668830315960814
  0.3328737705024432  0.1664826637248609  0.3332411198611548
  0.4983472488294693  0.3328759001340891  0.3339365573157584
  0.6573035432778969  0.4991416795032683  0.3422032310773968
  0.8320912646085620  0.6647979994310853  0.3348253474575025
 -0.0009066625188609  0.8324626618301924  0.3335927787939367
  0.4997631293033927  0.1654479449297959  0.4997182582781496
  0.6656058354352917  0.3328713532357002  0.5011368524567447
  0.8454782282343812  0.4992366666280283  0.5004252378256612
  0.0006706757366740  0.6669165198429972  0.5000285389244148
  0.6662767803842425  0.1664547346985746  0.6665948866486097
  0.8329472925233543  0.3342946984320957  0.6653410068015227
  0.0019333572817070  0.4997241594827849  0.6677433092384890
  0.8328441431287829  0.1664117331057426  0.8331798679458762
 -0.0002792803803550  0.3330723988345298  0.8332585826157266
 -0.0006047076426183  0.1662428561806251  0.0001504358259907
  0.1654784604558266  0.4996131406702143  0.1659341947334488
  0.3342117999639138  0.6648080656425959  0.1676171826654314
  0.4995917801472107  0.8309815821246981  0.1685978197498223
  0.6658450445452029 -0.0007814323582063  0.1671739122966213
  0.1662999029905275  0.3329608013803116  0.3332317918924024
  0.3323193039677443  0.4985143472769578  0.3338068117485964
  0.4989722299273162  0.6568255359663809  0.3424143437361413
  0.6646360352014944  0.8320650175856482  0.3348415000817225
  0.8322951159822864 -0.0007917812899083  0.3336073305775885
  0.1666807336997790  0.1667714860634371  0.4997820430170610
  0.3355547918389081  0.3357157709326130  0.4993079756176805
  0.6570229561215316  0.6568779987404599  0.5004706778359255
  0.8309009204983064  0.8310151794806563  0.4998631137414145
  0.9990933214159565 -0.0007766206813715  0.4999546893747949
  0.3334123372015353  0.1674482833887009  0.6660534462699382
  0.5001966399577693  0.3356853831658430  0.6639339635228227
  0.6656825051121463  0.4985208232801557  0.6671009282585822
  0.8318826357332992  0.6648269608212808  0.6652608293491201
 -0.0009627947405748  0.8327145917826656  0.6665041655084933
  0.4997303531369096  0.1667718022431793  0.8328016406927286
  0.6663064452457158  0.3329524017024301  0.8331775440799081
  0.8335533346574873  0.4995817755135197  0.8339886511181893
 -0.0007827304392143  0.6662252362733126  0.8333095712950073
  0.6661030966042832  0.1662458807194531  0.0002911700858740
  0.8325991391121685  0.3330471455871548  0.0004594098205946
 -0.0008841620751871  0.4996363704925770  0.0003587246758616
  0.1664449468072925  0.8324156889488655  0.1671814474888808
  0.3329913641970715 -0.0008588458797953  0.1669184749781958
  0.1669252346426288  0.6658554430412374  0.3337583172724677
  0.3342701351687249  0.8319073279137055  0.3347511007041332
  0.4994557952486189  0.0007578103468805  0.3327263784429287
  0.1653061742955672  0.4999007251409950  0.4997330015320086
  0.3325712430836515  0.6657594831985467  0.5010962851952128
  0.4991288332894287  0.8453175785729525  0.5003580870733262
  0.6667458746935293  0.0007415316059623  0.5000081066487841
  0.1673409849611774  0.3335344871752189  0.6660752569131643
  0.3355585664720009  0.5003466915781336  0.6639116130166227
  0.4984037130648579  0.6657344523000274  0.6669327667349585
  0.6647379014599037  0.8319204008637719  0.6652198799447013
  0.8325453314713748 -0.0008527438930704  0.6664651872595062
  0.1664054155996022  0.1665112284003425  0.8331643748681302
  0.3334343896048058  0.3335505188929604  0.8321479980841943
  0.4997745583911095  0.4998849205454263  0.8341802950498792
  0.6657665681373733  0.6658593146650507  0.8325754488493596
  0.8323219513462513  0.8324369779290053  0.8330425613099509
 -0.0006396378517091 -0.0005080996359153  0.8333981284887988
  0.3329944574584133  0.1663923181063898 -0.0001796469036422
  0.4996044654905050  0.3318558836630132  0.9975955715123556
  0.6667822791753503  0.4995384913599236 -0.0011522435406464
  0.8323779046419364  0.6659821827640664  0.0003530753731470
 -0.0007732826677857  0.8327173907295227  0.0002883609794668
  0.1661669700228472 -0.0007006852948964  0.3333721483406707
  0.1655308190530561  0.8336288707661454  0.4999684574881425
  0.3317678393164188  0.0019557525519149  0.4998741888852252
  0.1663542540790465  0.6664440175266575  0.6666225378541976
  0.3341374290513400  0.8330811837435854  0.6653545718350402
  0.4996121669140722  0.0019602880684404  0.6676946576936630
  0.1666923608741896  0.4998591541337939  0.8327934380032542
  0.3328843009850575  0.6664369261364808  0.8331347973025494
  0.4995030408655827  0.8336269222657219  0.8339299897529546
  0.6661032780277296 -0.0006974796116395  0.8332943343203125
  0.1662617890688889  0.3330940276962714 -0.0001811196624930
  0.3317479094895041  0.4997353086912935 -0.0024454849861448
  0.4994573775496849  0.6668985399508633  0.9988125970012460
  0.6658587551165597  0.8324693492936767  0.0003709018107322
  0.8325960619485573 -0.0006707987768578  0.0002616097751003
  0.1662437861153666 -0.0001768606270565  0.6665474448305372
  0.1663047693473154  0.8329942198247610  0.8332049937820545
  0.3329768653827114 -0.0001673274826910  0.8332589895750607
  0.1661609439306057  0.6662323672207950  0.0002591008635137
  0.3329853599279587  0.8327092910853908  0.0004544231672566
  0.4995359351118294  0.9992327798806575  0.0003819933045730
  0.1661549294671183 -0.0005048079627178  0.0001596628198154
 
  0.00000000E+00  0.00000000E+00  0.00000000E+00
  0.00000000E+00  0.00000000E+00  0.00000000E+00
  0.00000000E+00  0.00000000E+00  0.00000000E+00
  0.00000000E+00  0.00000000E+00  0.00000000E+00
  0.00000000E+00  0.00000000E+00  0.00000000E+00
  0.00000000E+00  0.00000000E+00  0.00000000E+00
  0.00000000E+00  0.00000000E+00  0.00000000E+00
  0.00000000E+00  0.00000000E+00  0.00000000E+00
  0.00000000E+00  0.00000000E+00  0.00000000E+00
  0.00000000E+00  0.00000000E+00  0.00000000E+00
  0.00000000E+00  0.00000000E+00  0.00000000E+00
  0.00000000E+00  0.00000000E+00  0.00000000E+00
  0.00000000E+00  0.00000000E+00  0.00000000E+00
  0.00000000E+00  0.00000000E+00  0.00000000E+00
  0.00000000E+00  0.00000000E+00  0.00000000E+00
  0.00000000E+00  0.00000000E+00  0.00000000E+00
  0.00000000E+00  0.00000000E+00  0.00000000E+00
  0.00000000E+00  0.00000000E+00  0.00000000E+00
  0.00000000E+00  0.00000000E+00  0.00000000E+00
  0.00000000E+00  0.00000000E+00  0.00000000E+00
  0.00000000E+00  0.00000000E+00  0.00000000E+00
  0.00000000E+00  0.00000000E+00  0.00000000E+00
  0.00000000E+00  0.00000000E+00  0.00000000E+00
  0.00000000E+00  0.00000000E+00  0.00000000E+00
  0.00000000E+00  0.00000000E+00  0.00000000E+00
  0.00000000E+00  0.00000000E+00  0.00000000E+00
  0.00000000E+00  0.00000000E+00  0.00000000E+00
  0.00000000E+00  0.00000000E+00  0.00000000E+00
  0.00000000E+00  0.00000000E+00  0.00000000E+00
  0.00000000E+00  0.00000000E+00  0.00000000E+00
  0.00000000E+00  0.00000000E+00  0.00000000E+00
  0.00000000E+00  0.00000000E+00  0.00000000E+00
  0.00000000E+00  0.00000000E+00  0.00000000E+00
  0.00000000E+00  0.00000000E+00  0.00000000E+00
  0.00000000E+00  0.00000000E+00  0.00000000E+00
  0.00000000E+00  0.00000000E+00  0.00000000E+00
  0.00000000E+00  0.00000000E+00  0.00000000E+00
  0.00000000E+00  0.00000000E+00  0.00000000E+00
  0.00000000E+00  0.00000000E+00  0.00000000E+00
  0.00000000E+00  0.00000000E+00  0.00000000E+00
  0.00000000E+00  0.00000000E+00  0.00000000E+00
  0.00000000E+00  0.00000000E+00  0.00000000E+00
  0.00000000E+00  0.00000000E+00  0.00000000E+00
  0.00000000E+00  0.00000000E+00  0.00000000E+00
  0.00000000E+00  0.00000000E+00  0.00000000E+00
  0.00000000E+00  0.00000000E+00  0.00000000E+00
  0.00000000E+00  0.00000000E+00  0.00000000E+00
  0.00000000E+00  0.00000000E+00  0.00000000E+00
  0.00000000E+00  0.00000000E+00  0.00000000E+00
  0.00000000E+00  0.00000000E+00  0.00000000E+00
  0.00000000E+00  0.00000000E+00  0.00000000E+00
  0.00000000E+00  0.00000000E+00  0.00000000E+00
  0.00000000E+00  0.00000000E+00  0.00000000E+00
  0.00000000E+00  0.00000000E+00  0.00000000E+00
  0.00000000E+00  0.00000000E+00  0.00000000E+00
  0.00000000E+00  0.00000000E+00  0.00000000E+00
  0.00000000E+00  0.00000000E+00  0.00000000E+00
  0.00000000E+00  0.00000000E+00  0.00000000E+00
  0.00000000E+00  0.00000000E+00  0.00000000E+00
  0.00000000E+00  0.00000000E+00  0.00000000E+00
  0.00000000E+00  0.00000000E+00  0.00000000E+00
  0.00000000E+00  0.00000000E+00  0.00000000E+00
  0.00000000E+00  0.00000000E+00  0.00000000E+00
  0.00000000E+00  0.00000000E+00  0.00000000E+00
  0.00000000E+00  0.00000000E+00  0.00000000E+00
  0.00000000E+00  0.00000000E+00  0.00000000E+00
  0.00000000E+00  0.00000000E+00  0.00000000E+00
  0.00000000E+00  0.00000000E+00  0.00000000E+00
  0.00000000E+00  0.00000000E+00  0.00000000E+00
  0.00000000E+00  0.00000000E+00  0.00000000E+00
  0.00000000E+00  0.00000000E+00  0.00000000E+00
  0.00000000E+00  0.00000000E+00  0.00000000E+00
  0.00000000E+00  0.00000000E+00  0.00000000E+00
  0.00000000E+00  0.00000000E+00  0.00000000E+00
  0.00000000E+00  0.00000000E+00  0.00000000E+00
  0.00000000E+00  0.00000000E+00  0.00000000E+00
  0.00000000E+00  0.00000000E+00  0.00000000E+00
  0.00000000E+00  0.00000000E+00  0.00000000E+00
  0.00000000E+00  0.00000000E+00  0.00000000E+00
  0.00000000E+00  0.00000000E+00  0.00000000E+00
  0.00000000E+00  0.00000000E+00  0.00000000E+00
  0.00000000E+00  0.00000000E+00  0.00000000E+00
  0.00000000E+00  0.00000000E+00  0.00000000E+00
  0.00000000E+00  0.00000000E+00  0.00000000E+00
  0.00000000E+00  0.00000000E+00  0.00000000E+00
  0.00000000E+00  0.00000000E+00  0.00000000E+00
  0.00000000E+00  0.00000000E+00  0.00000000E+00
  0.00000000E+00  0.00000000E+00  0.00000000E+00
  0.00000000E+00  0.00000000E+00  0.00000000E+00
  0.00000000E+00  0.00000000E+00  0.00000000E+00
  0.00000000E+00  0.00000000E+00  0.00000000E+00
  0.00000000E+00  0.00000000E+00  0.00000000E+00
  0.00000000E+00  0.00000000E+00  0.00000000E+00
  0.00000000E+00  0.00000000E+00  0.00000000E+00
  0.00000000E+00  0.00000000E+00  0.00000000E+00
  0.00000000E+00  0.00000000E+00  0.00000000E+00
  0.00000000E+00  0.00000000E+00  0.00000000E+00
  0.00000000E+00  0.00000000E+00  0.00000000E+00
  0.00000000E+00  0.00000000E+00  0.00000000E+00
  0.00000000E+00  0.00000000E+00  0.00000000E+00
  0.00000000E+00  0.00000000E+00  0.00000000E+00
  0.00000000E+00  0.00000000E+00  0.00000000E+00
  0.00000000E+00  0.00000000E+00  0.00000000E+00
  0.00000000E+00  0.00000000E+00  0.00000000E+00
  0.00000000E+00  0.00000000E+00  0.00000000E+00
  0.00000000E+00  0.00000000E+00  0.00000000E+00
  0.00000000E+00  0.00000000E+00  0.00000000E+00
  0.00000000E+00  0.00000000E+00  0.00000000E+00
  0.00000000E+00  0.00000000E+00  0.00000000E+00
  0.00000000E+00  0.00000000E+00  0.00000000E+00
  0.00000000E+00  0.00000000E+00  0.00000000E+00
  0.00000000E+00  0.00000000E+00  0.00000000E+00
  0.00000000E+00  0.00000000E+00  0.00000000E+00
  0.00000000E+00  0.00000000E+00  0.00000000E+00
  0.00000000E+00  0.00000000E+00  0.00000000E+00
  0.00000000E+00  0.00000000E+00  0.00000000E+00
  0.00000000E+00  0.00000000E+00  0.00000000E+00
  0.00000000E+00  0.00000000E+00  0.00000000E+00
  0.00000000E+00  0.00000000E+00  0.00000000E+00
  0.00000000E+00  0.00000000E+00  0.00000000E+00
  0.00000000E+00  0.00000000E+00  0.00000000E+00
  0.00000000E+00  0.00000000E+00  0.00000000E+00
  0.00000000E+00  0.00000000E+00  0.00000000E+00
  0.00000000E+00  0.00000000E+00  0.00000000E+00
  0.00000000E+00  0.00000000E+00  0.00000000E+00
  0.00000000E+00  0.00000000E+00  0.00000000E+00
  0.00000000E+00  0.00000000E+00  0.00000000E+00
  0.00000000E+00  0.00000000E+00  0.00000000E+00
  0.00000000E+00  0.00000000E+00  0.00000000E+00
  0.00000000E+00  0.00000000E+00  0.00000000E+00
  0.00000000E+00  0.00000000E+00  0.00000000E+00
  0.00000000E+00  0.00000000E+00  0.00000000E+00
  0.00000000E+00  0.00000000E+00  0.00000000E+00
  0.00000000E+00  0.00000000E+00  0.00000000E+00
  0.00000000E+00  0.00000000E+00  0.00000000E+00
  0.00000000E+00  0.00000000E+00  0.00000000E+00
  0.00000000E+00  0.00000000E+00  0.00000000E+00
  0.00000000E+00  0.00000000E+00  0.00000000E+00
  0.00000000E+00  0.00000000E+00  0.00000000E+00
  0.00000000E+00  0.00000000E+00  0.00000000E+00
  0.00000000E+00  0.00000000E+00  0.00000000E+00
  0.00000000E+00  0.00000000E+00  0.00000000E+00
  0.00000000E+00  0.00000000E+00  0.00000000E+00
  0.00000000E+00  0.00000000E+00  0.00000000E+00
  0.00000000E+00  0.00000000E+00  0.00000000E+00
  0.00000000E+00  0.00000000E+00  0.00000000E+00
  0.00000000E+00  0.00000000E+00  0.00000000E+00
  0.00000000E+00  0.00000000E+00  0.00000000E+00
  0.00000000E+00  0.00000000E+00  0.00000000E+00
  0.00000000E+00  0.00000000E+00  0.00000000E+00
  0.00000000E+00  0.00000000E+00  0.00000000E+00
  0.00000000E+00  0.00000000E+00  0.00000000E+00
  0.00000000E+00  0.00000000E+00  0.00000000E+00
  0.00000000E+00  0.00000000E+00  0.00000000E+00
  0.00000000E+00  0.00000000E+00  0.00000000E+00
  0.00000000E+00  0.00000000E+00  0.00000000E+00
  0.00000000E+00  0.00000000E+00  0.00000000E+00
  0.00000000E+00  0.00000000E+00  0.00000000E+00
  0.00000000E+00  0.00000000E+00  0.00000000E+00
  0.00000000E+00  0.00000000E+00  0.00000000E+00
  0.00000000E+00  0.00000000E+00  0.00000000E+00
  0.00000000E+00  0.00000000E+00  0.00000000E+00
  0.00000000E+00  0.00000000E+00  0.00000000E+00
  0.00000000E+00  0.00000000E+00  0.00000000E+00
  0.00000000E+00  0.00000000E+00  0.00000000E+00
  0.00000000E+00  0.00000000E+00  0.00000000E+00
  0.00000000E+00  0.00000000E+00  0.00000000E+00
  0.00000000E+00  0.00000000E+00  0.00000000E+00
  0.00000000E+00  0.00000000E+00  0.00000000E+00
  0.00000000E+00  0.00000000E+00  0.00000000E+00
  0.00000000E+00  0.00000000E+00  0.00000000E+00
  0.00000000E+00  0.00000000E+00  0.00000000E+00
  0.00000000E+00  0.00000000E+00  0.00000000E+00
  0.00000000E+00  0.00000000E+00  0.00000000E+00
  0.00000000E+00  0.00000000E+00  0.00000000E+00
  0.00000000E+00  0.00000000E+00  0.00000000E+00
  0.00000000E+00  0.00000000E+00  0.00000000E+00
  0.00000000E+00  0.00000000E+00  0.00000000E+00
  0.00000000E+00  0.00000000E+00  0.00000000E+00
  0.00000000E+00  0.00000000E+00  0.00000000E+00
  0.00000000E+00  0.00000000E+00  0.00000000E+00
  0.00000000E+00  0.00000000E+00  0.00000000E+00
  0.00000000E+00  0.00000000E+00  0.00000000E+00
  0.00000000E+00  0.00000000E+00  0.00000000E+00
  0.00000000E+00  0.00000000E+00  0.00000000E+00
  0.00000000E+00  0.00000000E+00  0.00000000E+00
  0.00000000E+00  0.00000000E+00  0.00000000E+00
  0.00000000E+00  0.00000000E+00  0.00000000E+00
  0.00000000E+00  0.00000000E+00  0.00000000E+00
  0.00000000E+00  0.00000000E+00  0.00000000E+00
  0.00000000E+00  0.00000000E+00  0.00000000E+00
  0.00000000E+00  0.00000000E+00  0.00000000E+00
  0.00000000E+00  0.00000000E+00  0.00000000E+00
  0.00000000E+00  0.00000000E+00  0.00000000E+00
  0.00000000E+00  0.00000000E+00  0.00000000E+00
  0.00000000E+00  0.00000000E+00  0.00000000E+00
  0.00000000E+00  0.00000000E+00  0.00000000E+00
  0.00000000E+00  0.00000000E+00  0.00000000E+00
  0.00000000E+00  0.00000000E+00  0.00000000E+00
  0.00000000E+00  0.00000000E+00  0.00000000E+00
  0.00000000E+00  0.00000000E+00  0.00000000E+00
  0.00000000E+00  0.00000000E+00  0.00000000E+00
  0.00000000E+00  0.00000000E+00  0.00000000E+00
  0.00000000E+00  0.00000000E+00  0.00000000E+00
  0.00000000E+00  0.00000000E+00  0.00000000E+00
  0.00000000E+00  0.00000000E+00  0.00000000E+00
  0.00000000E+00  0.00000000E+00  0.00000000E+00
  0.00000000E+00  0.00000000E+00  0.00000000E+00
  0.00000000E+00  0.00000000E+00  0.00000000E+00
  0.00000000E+00  0.00000000E+00  0.00000000E+00
  0.00000000E+00  0.00000000E+00  0.00000000E+00
  0.00000000E+00  0.00000000E+00  0.00000000E+00
  0.00000000E+00  0.00000000E+00  0.00000000E+00
  0.00000000E+00  0.00000000E+00  0.00000000E+00
  0.00000000E+00  0.00000000E+00  0.00000000E+00
  0.00000000E+00  0.00000000E+00  0.00000000E+00
