0.0% N(Distort)=3 ~[0.5,0.5,0.5]        
   1.00000000000000     
    12.5998379999999983    0.0000000000000004    0.0000000000000004
     0.0000000000000004   12.5998379999999983   -0.0000000000000004
    -0.0000000000000004   -0.0000000000000004   12.5998379999999983
   Mg   O 
   109   107
Direct
  0.6665046540703737 -0.0005026779634834  0.0005604252880280
  0.8331544840055232  0.1658335097657023  0.0006389505388620
  0.8330114094502620 -0.0005250996554547  0.1669415985816642
  0.3322388685100638 -0.0004428108407418  0.0004931486392385
  0.4993786246673730  0.1648483548341615 -0.0009607029540055
  0.6668730844427490  0.3322586341558725  0.9995901235602707
  0.8334131860633887  0.4993753461304149  0.0004514718622453
  0.4992248893636689  0.9996091727112433  0.1665287784945191
  0.6667188670057822  0.1653293980237070  0.1667232058203197
  0.8329803104709441  0.3322954571672729  0.1669453802394305
  0.6663644220656023  0.0004070786188130  0.3335679064209375
  0.8332138619730288  0.1653467823993346  0.3332276334796087
  0.8334072602192101 -0.0003776607904238  0.5007010303059022
 -0.0005814514873656 -0.0004925074406034  0.0005338300029261
  0.1657857693191982  0.1658955294878941  0.0001805282163788
  0.3319987411708944  0.3321096230275682 -0.0013079860361245
  0.4991594424925004  0.4992789749275147  0.9962600581990964
  0.6663809442568002  0.6665174078568747 -0.0002821985890062
  0.8330192176079629  0.8331294335708588  0.0005909085174520
  0.1656943519344611 -0.0005652956457619  0.1667931029459348
  0.3318664144903051  0.1652517626210730  0.1660799506632414
  0.4995238332993278  0.3262183937508438  0.1593173004178610
  0.6668158880022915  0.4990783349494129  0.1636893667729241
  0.8340999982492319  0.6664212623322819  0.1658333824493856
  0.3320804920529189  0.0004739548538997  0.3330529335754397
  0.4991128883390291  0.1647704513601765  0.3324460280320963
  0.6662664307423595  0.3310164602989760  0.3336656275306688
  0.8362434998794148  0.4990729435943340  0.3331123679253823
  0.4991182483777255  0.0038182668257803  0.5008122925337434
  0.6674833728905533  0.1647810613296906  0.5008220728211186
  0.8406226311391215  0.3262274366699046  0.5004304168137234
  0.6668752282792150  0.0004769547567094  0.6678305760862699
  0.8338539621030937  0.1652608923562561  0.6680805113031898
  0.8331421427950694 -0.0005678145623970  0.8342532649232746
 -0.0005582824860098  0.3323662005528401  0.0004961525702044
  0.1647460267551924  0.4994901358240840 -0.0009861515258159
  0.3321482496041006  0.6669818530345215 -0.0004076332391489
  0.4992414554183068  0.8335169206863564  0.0004609997595388
 -0.0006845287444964  0.1658477117825199  0.1667937604413018
  0.1651302372939325  0.3320194426297929  0.1660736065507087
  0.3261333441249875  0.4996424809870050  0.1593256067443615
  0.4989623052371430  0.6669278640626849  0.1637086018818072
  0.6662986101543912  0.8342386790560932  0.1658527369100491
 -0.0006197985300083 -0.0004876292929679  0.3334476257502943
  0.1651592891664363  0.1653083451064264  0.3332108833050809
  0.3285011039969882  0.3286518501316538  0.3331893959473374
  0.4804410296411765  0.4805010501999480  0.3015545513608678
  0.6724552348600858  0.6726023410439597  0.3274723448388984
  0.8340810652101793  0.8342390121906383  0.3336522546816806
  0.1647038716592658  0.0010371853485709  0.5005768618117635
  0.3320092475484406  0.1663132019249014  0.5005616021678133
  0.4994215215255617  0.3291964617130341  0.5005194995406375
  0.6983770777229981  0.4804996504927071  0.5194602458163196
  0.8362278539740092  0.6669190775102091  0.5009685051320200
  0.3319812514730575  0.0013637429932270  0.6679609425256019
  0.4993914904319851  0.1663158324427183  0.6679279698390118
  0.6667558822981611  0.3286507551190735  0.6714356499815046
  0.8406018323895585  0.4996331305716154  0.6738077608351838
  0.4993657679398238  0.0010357542581677  0.8352213659447477
  0.6667292575791919  0.1653065803398695  0.8347751749109966
  0.8338594104690161  0.3320103213438917  0.8348156217569742
 -0.0006109357709679  0.6666189147152098  0.0005352316568599
  0.1657186555124763  0.8332358022339120  0.0006181883317068
 -0.0005252232320691  0.4993684683849521  0.1665103612297341
  0.1651924760015031  0.6668373611966535  0.1667110759968069
  0.3321662878429437  0.8331141139841811  0.1669460996547409
  0.0003309614358193  0.3322607550268577  0.3330621724233622
  0.1646158069373565  0.4992722435614993  0.3324284150798228
  0.3309183166019057  0.6664075094858130  0.3336438387266942
  0.4989504567519921  0.8364406969701690  0.3331254395720672
  0.0008765321662069  0.1648572227224831  0.5005718224652427
  0.1661686657350418  0.3321768720082569  0.5005229953577288
  0.3290714981827512  0.4995525976214487  0.5004831826237907
  0.4804026758877254  0.6985447377767431  0.5194520228507866
  0.6667942122626981  0.8364395989497398  0.5009754072181073
  0.9994247309952319 -0.0004449639842280  0.6677124343666530
  0.1662158273887252  0.1663530071341414  0.6675209814867087
  0.3328333012217560  0.3329577112511731  0.6670959608867363
  0.4994296789215243  0.4995482234103990  0.6708122465343795
  0.6662628561844629  0.6663918854595217  0.6689591312595509
  0.8329691433504898  0.8331232894524427  0.6677623201254590
  0.1657796312847371 -0.0001240704179052  0.8341645302376379
  0.3324248931424800  0.1663491098853677  0.8337181376465319
  0.4994172300247396  0.3321635031593208  0.8337496935331741
  0.6674942100624212  0.4992798450141137  0.8352948025879159
  0.8332043494237258  0.6668342821419546  0.8347123235725474
 -0.0006554971734351  0.8331275554961224  0.1669339612648048
  0.0001980510572103  0.6665090863439393  0.3335477978978811
  0.1651821439546038  0.8333426089304078  0.3332087149455619
  0.0036449662823257  0.4992696509297323  0.5007748564418903
  0.1646291656250333  0.6676275597951419  0.5007780855442191
  0.3260934431583375  0.8407637001604650  0.5004035818144336
  0.0012361577277951  0.3321063479806470  0.6679438718286465
  0.1661760100906617  0.4995334747515744  0.6678660730437501
  0.3285337147813034  0.6668872490139059  0.6713742314460374
  0.4995181535022676  0.8407392011140179  0.6738070718844754
 -0.0002244810615981  0.1658897332707459  0.8341658220831005
  0.1662362785356239  0.3325489779583705  0.8337098532355167
  0.3320493146968692  0.4995240300548681  0.8337351351393649
  0.4991449998480423  0.6676124328393120  0.8352714483519433
  0.6667216799269388  0.8333336205008872  0.8347163132913604
 -0.0005364127362149  0.8335367492681848  0.5006955126020137
  0.0003208075547906  0.6669950062111126  0.6677974686095919
  0.1651352973723725  0.8339732978193407  0.6680391381114704
  0.0009002350393903  0.4994981981615124  0.8351934399195960
  0.1651841411305677  0.6668289712954101  0.8347336329842728
  0.3318986678137604  0.8339695334244807  0.8347941879942805
 -0.0006909828850666  0.8332445436788453  0.8342231426863688
  0.5567451277014150  0.5568899915450454  0.4431691009020381
  0.8324925706224188  0.1662719375382318  0.1674583734569580
 -0.0009827169554440  0.3328831530054351  0.1672045870877348
 -0.0008208588375413  0.1660501543916551  0.3337792595630720
  0.4993616037619042  0.1649789354814312  0.1659361590334407
  0.6651485681686862  0.3337008693210134  0.1676298827163205
  0.8313625352876807  0.4995997282648909  0.1685687510610549
 -0.0009160083803200  0.6660745553532921  0.1674204820698762
  0.6660429045316887  0.1664749411120410  0.3338857329087414
  0.8323002451127189  0.3336988727436496  0.3347764365149354
  0.0002777384664775  0.4994887838236953  0.3333785739362255
  0.8340017854888661  0.1649882876415874  0.5005768486154536
  0.0018447604429370  0.3318816950673087  0.5004627147336074
 -0.0002263213396397  0.1661374341428694  0.6672072443464928
  0.1659767447585761  0.1661295988524401  0.1669680383837073
  0.3332797498639008  0.3333986047909248  0.1663843901180412
  0.4985241964221560  0.4986501104491083  0.1561476289012081
  0.6651814260392563  0.6653233736648865  0.1673051451833849
  0.8321193035926826  0.8322468507822364  0.1678207777740792
 -0.0008268175579453 -0.0006986283536088  0.1672872421765549
  0.3322980046141331  0.1658204232650352  0.3333481100618731
  0.4981384334010256  0.3297897267066606  0.3310729236501609
  0.6596433088130764  0.4999037520783654  0.3402831119092500
  0.8326178028123443  0.6653165584147032  0.3347464849760452
 -0.0009313538332195  0.8326359006514581  0.3339963111354824
  0.4998217985149334  0.1670865205414188  0.5001189498370069
  0.6688540485577658  0.3297934337397224  0.5017919763994424
  0.8437931548711812  0.4986377246606394  0.5014121900840971
  0.0002802483470335  0.6666730972651609  0.5005759420233676
  0.6665800759765665  0.1658174587455198  0.6676401096756025
  0.8335621554195565  0.3333851573245341  0.6666701167384712
  0.0018425106162582  0.4995993345040920  0.6681762323563187
  0.8329790771293668  0.1661232106963606  0.8339777367065412
 -0.0002055476367256  0.3328524552994251  0.8339147295753321
 -0.0006493850834911  0.1661074282828104  0.0006061776958147
  0.1648725588019866  0.4995069880660143  0.1659237197657191
  0.3335814097846904  0.6652845416426422  0.1676212608606920
  0.4994681386300276  0.8314933077928931  0.1685816775132036
  0.6659614387637780 -0.0007710600362507  0.1674391268166071
  0.1656783425502787  0.3324671713804462  0.3333274350635093
  0.3296784056176300  0.4982722073811494  0.3310757450352280
  0.4997385986392649  0.6598191408435359  0.3403028871887288
  0.6651714010722560  0.8327932341326846  0.3347608349802890
  0.8324942123460707 -0.0007705228266641  0.3339886508334111
  0.1664137336025406  0.1665705120702591  0.5002852698087067
  0.3338216152584064  0.3339607702097582  0.4995396627558140
  0.6596575868199900  0.6597958020391749  0.5001635105828455
  0.8313440291433927  0.8314932734454779  0.5004716315034804
  0.9991074895087424 -0.0007463388321607  0.5005016432863094
  0.3331046830012529  0.1671833641201327  0.6668344918091751
  0.5003907266365916  0.3339589927167524  0.6661026310183241
  0.6688586880815355  0.4982636794052371  0.6702185321035888
  0.8323040633299559  0.6652859909948828  0.6663321745338923
 -0.0010023258974400  0.8328565707556080  0.6671930302728429
  0.4996602383341114  0.1665649418477232  0.8335181639570154
  0.6665858566941970  0.3324643613156047  0.8342435042824562
  0.8339940815819875  0.4995032487608548  0.8350550678287699
 -0.0008227515233688  0.6662706347075282  0.8339965747249058
  0.6661712613913453  0.1660378118068584  0.0007621842337040
  0.8327287045287023  0.3328829642358258  0.0009207262308792
 -0.0008618502029099  0.4995698684329443  0.0007895218077003
  0.1661346583237213  0.8325981012057269  0.1674401749291581
  0.3327016061393848 -0.0008569577280606  0.1671752805851417
  0.1663348337711855  0.6661860157187350  0.3338562236983025
  0.3335588127416765  0.8324469774769278  0.3347715484571105
  0.4993029458838377  0.0004652467461319  0.3333895417692236
  0.1669286506382736  0.4999655850457414  0.5000703661516537
  0.3296721532720775  0.6689831059449839  0.5017639141383554
  0.4985194787768660  0.8439704165732126  0.5013882625163470
  0.6665238013841563  0.0004633197780817  0.5006030709323142
  0.1670535028123856  0.3332431460184274  0.6668183287931797
  0.3338345778855827  0.5005194293047509  0.6660696028867592
  0.4981300349627753  0.6689893752072035  0.6701869564573930
  0.6651487609336121  0.8324476004698783  0.6663403038043895
  0.8327306454246758 -0.0008526019769589  0.6672200087762551
  0.1662521412079019  0.1663778388969041  0.8336931823228004
  0.3331254082902588  0.3332449475641875  0.8328783331212287
  0.4998531532396721  0.4999678251071335  0.8329363399353350
  0.6660645484377226  0.6661901807868377  0.8335531183681024
  0.8324824005667782  0.8326068859299230  0.8337870214468703
 -0.0006607462134456 -0.0005555329828507  0.8339660632732504
  0.3327490460414894  0.1661450343513804  0.0001516617498046
  0.4994826877191724  0.3318784138560958  0.9980857668638795
  0.6665411151472584  0.4994937503000949 -0.0003611380564655
  0.8325049928877414  0.6660793802577515  0.0008422267311663
 -0.0008024680595041  0.8327622048674704  0.0007398843163631
  0.1658995266972147 -0.0006909998175293  0.3337826038775943
  0.1648521942730282  0.8341408150357124  0.5005733301848523
  0.3317273111360599  0.0019963070438126  0.5004885914470748
  0.1656780431046245  0.6667209265145564  0.6675883526077590
  0.3332878674094095  0.8336854887454948  0.6666358307873789
  0.4994575025489779  0.0019895204748414  0.6682089690752430
  0.1664509755642622  0.4997993335685654  0.8334697925520931
  0.3323324638153731  0.6667070426408763  0.8342202757699098
  0.4993735939545405  0.8341293730974153  0.8350607419496042
  0.6661608247500902 -0.0007012342455618  0.8340286649462589
  0.1660393906359263  0.3328618707940008  0.0001365800964530
  0.3317703069967595  0.4995900355923539 -0.0019257436036240
  0.4993504785308708  0.6666665022421044 -0.0003827346168891
  0.6659532698514729  0.8326385665473849  0.0008524554713965
  0.8326695414531955 -0.0006989879728206  0.0007613493540746
  0.1660107211446379 -0.0000891559473961  0.6672203257432282
  0.1659962943891273  0.8330874149548075  0.8339349397481842
  0.3327206268199916 -0.0000933121033193  0.8339142147811539
  0.1659390357313565  0.6662624604872504  0.0007338592361044
  0.3327355123315847  0.8328532669845967  0.0009176856621426
  0.4994289921686191  0.9992469535423263  0.0008194654816537
  0.1659805106158288 -0.0005558775329258  0.0005985591108384
 
  0.00000000E+00  0.00000000E+00  0.00000000E+00
  0.00000000E+00  0.00000000E+00  0.00000000E+00
  0.00000000E+00  0.00000000E+00  0.00000000E+00
  0.00000000E+00  0.00000000E+00  0.00000000E+00
  0.00000000E+00  0.00000000E+00  0.00000000E+00
  0.00000000E+00  0.00000000E+00  0.00000000E+00
  0.00000000E+00  0.00000000E+00  0.00000000E+00
  0.00000000E+00  0.00000000E+00  0.00000000E+00
  0.00000000E+00  0.00000000E+00  0.00000000E+00
  0.00000000E+00  0.00000000E+00  0.00000000E+00
  0.00000000E+00  0.00000000E+00  0.00000000E+00
  0.00000000E+00  0.00000000E+00  0.00000000E+00
  0.00000000E+00  0.00000000E+00  0.00000000E+00
  0.00000000E+00  0.00000000E+00  0.00000000E+00
  0.00000000E+00  0.00000000E+00  0.00000000E+00
  0.00000000E+00  0.00000000E+00  0.00000000E+00
  0.00000000E+00  0.00000000E+00  0.00000000E+00
  0.00000000E+00  0.00000000E+00  0.00000000E+00
  0.00000000E+00  0.00000000E+00  0.00000000E+00
  0.00000000E+00  0.00000000E+00  0.00000000E+00
  0.00000000E+00  0.00000000E+00  0.00000000E+00
  0.00000000E+00  0.00000000E+00  0.00000000E+00
  0.00000000E+00  0.00000000E+00  0.00000000E+00
  0.00000000E+00  0.00000000E+00  0.00000000E+00
  0.00000000E+00  0.00000000E+00  0.00000000E+00
  0.00000000E+00  0.00000000E+00  0.00000000E+00
  0.00000000E+00  0.00000000E+00  0.00000000E+00
  0.00000000E+00  0.00000000E+00  0.00000000E+00
  0.00000000E+00  0.00000000E+00  0.00000000E+00
  0.00000000E+00  0.00000000E+00  0.00000000E+00
  0.00000000E+00  0.00000000E+00  0.00000000E+00
  0.00000000E+00  0.00000000E+00  0.00000000E+00
  0.00000000E+00  0.00000000E+00  0.00000000E+00
  0.00000000E+00  0.00000000E+00  0.00000000E+00
  0.00000000E+00  0.00000000E+00  0.00000000E+00
  0.00000000E+00  0.00000000E+00  0.00000000E+00
  0.00000000E+00  0.00000000E+00  0.00000000E+00
  0.00000000E+00  0.00000000E+00  0.00000000E+00
  0.00000000E+00  0.00000000E+00  0.00000000E+00
  0.00000000E+00  0.00000000E+00  0.00000000E+00
  0.00000000E+00  0.00000000E+00  0.00000000E+00
  0.00000000E+00  0.00000000E+00  0.00000000E+00
  0.00000000E+00  0.00000000E+00  0.00000000E+00
  0.00000000E+00  0.00000000E+00  0.00000000E+00
  0.00000000E+00  0.00000000E+00  0.00000000E+00
  0.00000000E+00  0.00000000E+00  0.00000000E+00
  0.00000000E+00  0.00000000E+00  0.00000000E+00
  0.00000000E+00  0.00000000E+00  0.00000000E+00
  0.00000000E+00  0.00000000E+00  0.00000000E+00
  0.00000000E+00  0.00000000E+00  0.00000000E+00
  0.00000000E+00  0.00000000E+00  0.00000000E+00
  0.00000000E+00  0.00000000E+00  0.00000000E+00
  0.00000000E+00  0.00000000E+00  0.00000000E+00
  0.00000000E+00  0.00000000E+00  0.00000000E+00
  0.00000000E+00  0.00000000E+00  0.00000000E+00
  0.00000000E+00  0.00000000E+00  0.00000000E+00
  0.00000000E+00  0.00000000E+00  0.00000000E+00
  0.00000000E+00  0.00000000E+00  0.00000000E+00
  0.00000000E+00  0.00000000E+00  0.00000000E+00
  0.00000000E+00  0.00000000E+00  0.00000000E+00
  0.00000000E+00  0.00000000E+00  0.00000000E+00
  0.00000000E+00  0.00000000E+00  0.00000000E+00
  0.00000000E+00  0.00000000E+00  0.00000000E+00
  0.00000000E+00  0.00000000E+00  0.00000000E+00
  0.00000000E+00  0.00000000E+00  0.00000000E+00
  0.00000000E+00  0.00000000E+00  0.00000000E+00
  0.00000000E+00  0.00000000E+00  0.00000000E+00
  0.00000000E+00  0.00000000E+00  0.00000000E+00
  0.00000000E+00  0.00000000E+00  0.00000000E+00
  0.00000000E+00  0.00000000E+00  0.00000000E+00
  0.00000000E+00  0.00000000E+00  0.00000000E+00
  0.00000000E+00  0.00000000E+00  0.00000000E+00
  0.00000000E+00  0.00000000E+00  0.00000000E+00
  0.00000000E+00  0.00000000E+00  0.00000000E+00
  0.00000000E+00  0.00000000E+00  0.00000000E+00
  0.00000000E+00  0.00000000E+00  0.00000000E+00
  0.00000000E+00  0.00000000E+00  0.00000000E+00
  0.00000000E+00  0.00000000E+00  0.00000000E+00
  0.00000000E+00  0.00000000E+00  0.00000000E+00
  0.00000000E+00  0.00000000E+00  0.00000000E+00
  0.00000000E+00  0.00000000E+00  0.00000000E+00
  0.00000000E+00  0.00000000E+00  0.00000000E+00
  0.00000000E+00  0.00000000E+00  0.00000000E+00
  0.00000000E+00  0.00000000E+00  0.00000000E+00
  0.00000000E+00  0.00000000E+00  0.00000000E+00
  0.00000000E+00  0.00000000E+00  0.00000000E+00
  0.00000000E+00  0.00000000E+00  0.00000000E+00
  0.00000000E+00  0.00000000E+00  0.00000000E+00
  0.00000000E+00  0.00000000E+00  0.00000000E+00
  0.00000000E+00  0.00000000E+00  0.00000000E+00
  0.00000000E+00  0.00000000E+00  0.00000000E+00
  0.00000000E+00  0.00000000E+00  0.00000000E+00
  0.00000000E+00  0.00000000E+00  0.00000000E+00
  0.00000000E+00  0.00000000E+00  0.00000000E+00
  0.00000000E+00  0.00000000E+00  0.00000000E+00
  0.00000000E+00  0.00000000E+00  0.00000000E+00
  0.00000000E+00  0.00000000E+00  0.00000000E+00
  0.00000000E+00  0.00000000E+00  0.00000000E+00
  0.00000000E+00  0.00000000E+00  0.00000000E+00
  0.00000000E+00  0.00000000E+00  0.00000000E+00
  0.00000000E+00  0.00000000E+00  0.00000000E+00
  0.00000000E+00  0.00000000E+00  0.00000000E+00
  0.00000000E+00  0.00000000E+00  0.00000000E+00
  0.00000000E+00  0.00000000E+00  0.00000000E+00
  0.00000000E+00  0.00000000E+00  0.00000000E+00
  0.00000000E+00  0.00000000E+00  0.00000000E+00
  0.00000000E+00  0.00000000E+00  0.00000000E+00
  0.00000000E+00  0.00000000E+00  0.00000000E+00
  0.00000000E+00  0.00000000E+00  0.00000000E+00
  0.00000000E+00  0.00000000E+00  0.00000000E+00
  0.00000000E+00  0.00000000E+00  0.00000000E+00
  0.00000000E+00  0.00000000E+00  0.00000000E+00
  0.00000000E+00  0.00000000E+00  0.00000000E+00
  0.00000000E+00  0.00000000E+00  0.00000000E+00
  0.00000000E+00  0.00000000E+00  0.00000000E+00
  0.00000000E+00  0.00000000E+00  0.00000000E+00
  0.00000000E+00  0.00000000E+00  0.00000000E+00
  0.00000000E+00  0.00000000E+00  0.00000000E+00
  0.00000000E+00  0.00000000E+00  0.00000000E+00
  0.00000000E+00  0.00000000E+00  0.00000000E+00
  0.00000000E+00  0.00000000E+00  0.00000000E+00
  0.00000000E+00  0.00000000E+00  0.00000000E+00
  0.00000000E+00  0.00000000E+00  0.00000000E+00
  0.00000000E+00  0.00000000E+00  0.00000000E+00
  0.00000000E+00  0.00000000E+00  0.00000000E+00
  0.00000000E+00  0.00000000E+00  0.00000000E+00
  0.00000000E+00  0.00000000E+00  0.00000000E+00
  0.00000000E+00  0.00000000E+00  0.00000000E+00
  0.00000000E+00  0.00000000E+00  0.00000000E+00
  0.00000000E+00  0.00000000E+00  0.00000000E+00
  0.00000000E+00  0.00000000E+00  0.00000000E+00
  0.00000000E+00  0.00000000E+00  0.00000000E+00
  0.00000000E+00  0.00000000E+00  0.00000000E+00
  0.00000000E+00  0.00000000E+00  0.00000000E+00
  0.00000000E+00  0.00000000E+00  0.00000000E+00
  0.00000000E+00  0.00000000E+00  0.00000000E+00
  0.00000000E+00  0.00000000E+00  0.00000000E+00
  0.00000000E+00  0.00000000E+00  0.00000000E+00
  0.00000000E+00  0.00000000E+00  0.00000000E+00
  0.00000000E+00  0.00000000E+00  0.00000000E+00
  0.00000000E+00  0.00000000E+00  0.00000000E+00
  0.00000000E+00  0.00000000E+00  0.00000000E+00
  0.00000000E+00  0.00000000E+00  0.00000000E+00
  0.00000000E+00  0.00000000E+00  0.00000000E+00
  0.00000000E+00  0.00000000E+00  0.00000000E+00
  0.00000000E+00  0.00000000E+00  0.00000000E+00
  0.00000000E+00  0.00000000E+00  0.00000000E+00
  0.00000000E+00  0.00000000E+00  0.00000000E+00
  0.00000000E+00  0.00000000E+00  0.00000000E+00
  0.00000000E+00  0.00000000E+00  0.00000000E+00
  0.00000000E+00  0.00000000E+00  0.00000000E+00
  0.00000000E+00  0.00000000E+00  0.00000000E+00
  0.00000000E+00  0.00000000E+00  0.00000000E+00
  0.00000000E+00  0.00000000E+00  0.00000000E+00
  0.00000000E+00  0.00000000E+00  0.00000000E+00
  0.00000000E+00  0.00000000E+00  0.00000000E+00
  0.00000000E+00  0.00000000E+00  0.00000000E+00
  0.00000000E+00  0.00000000E+00  0.00000000E+00
  0.00000000E+00  0.00000000E+00  0.00000000E+00
  0.00000000E+00  0.00000000E+00  0.00000000E+00
  0.00000000E+00  0.00000000E+00  0.00000000E+00
  0.00000000E+00  0.00000000E+00  0.00000000E+00
  0.00000000E+00  0.00000000E+00  0.00000000E+00
  0.00000000E+00  0.00000000E+00  0.00000000E+00
  0.00000000E+00  0.00000000E+00  0.00000000E+00
  0.00000000E+00  0.00000000E+00  0.00000000E+00
  0.00000000E+00  0.00000000E+00  0.00000000E+00
  0.00000000E+00  0.00000000E+00  0.00000000E+00
  0.00000000E+00  0.00000000E+00  0.00000000E+00
  0.00000000E+00  0.00000000E+00  0.00000000E+00
  0.00000000E+00  0.00000000E+00  0.00000000E+00
  0.00000000E+00  0.00000000E+00  0.00000000E+00
  0.00000000E+00  0.00000000E+00  0.00000000E+00
  0.00000000E+00  0.00000000E+00  0.00000000E+00
  0.00000000E+00  0.00000000E+00  0.00000000E+00
  0.00000000E+00  0.00000000E+00  0.00000000E+00
  0.00000000E+00  0.00000000E+00  0.00000000E+00
  0.00000000E+00  0.00000000E+00  0.00000000E+00
  0.00000000E+00  0.00000000E+00  0.00000000E+00
  0.00000000E+00  0.00000000E+00  0.00000000E+00
  0.00000000E+00  0.00000000E+00  0.00000000E+00
  0.00000000E+00  0.00000000E+00  0.00000000E+00
  0.00000000E+00  0.00000000E+00  0.00000000E+00
  0.00000000E+00  0.00000000E+00  0.00000000E+00
  0.00000000E+00  0.00000000E+00  0.00000000E+00
  0.00000000E+00  0.00000000E+00  0.00000000E+00
  0.00000000E+00  0.00000000E+00  0.00000000E+00
  0.00000000E+00  0.00000000E+00  0.00000000E+00
  0.00000000E+00  0.00000000E+00  0.00000000E+00
  0.00000000E+00  0.00000000E+00  0.00000000E+00
  0.00000000E+00  0.00000000E+00  0.00000000E+00
  0.00000000E+00  0.00000000E+00  0.00000000E+00
  0.00000000E+00  0.00000000E+00  0.00000000E+00
  0.00000000E+00  0.00000000E+00  0.00000000E+00
  0.00000000E+00  0.00000000E+00  0.00000000E+00
  0.00000000E+00  0.00000000E+00  0.00000000E+00
  0.00000000E+00  0.00000000E+00  0.00000000E+00
  0.00000000E+00  0.00000000E+00  0.00000000E+00
  0.00000000E+00  0.00000000E+00  0.00000000E+00
  0.00000000E+00  0.00000000E+00  0.00000000E+00
  0.00000000E+00  0.00000000E+00  0.00000000E+00
  0.00000000E+00  0.00000000E+00  0.00000000E+00
  0.00000000E+00  0.00000000E+00  0.00000000E+00
  0.00000000E+00  0.00000000E+00  0.00000000E+00
  0.00000000E+00  0.00000000E+00  0.00000000E+00
  0.00000000E+00  0.00000000E+00  0.00000000E+00
  0.00000000E+00  0.00000000E+00  0.00000000E+00
  0.00000000E+00  0.00000000E+00  0.00000000E+00
  0.00000000E+00  0.00000000E+00  0.00000000E+00
  0.00000000E+00  0.00000000E+00  0.00000000E+00
  0.00000000E+00  0.00000000E+00  0.00000000E+00
  0.00000000E+00  0.00000000E+00  0.00000000E+00
  0.00000000E+00  0.00000000E+00  0.00000000E+00
  0.00000000E+00  0.00000000E+00  0.00000000E+00
  0.00000000E+00  0.00000000E+00  0.00000000E+00
  0.00000000E+00  0.00000000E+00  0.00000000E+00
