-20.0%_BDM__vac_4_Se[0.08333333 0.555145
   1.0000000000000000     
    11.8576449999999998    0.0000000000000000    0.0000000000000000
     0.0000000000000000   11.5459130000000005    0.0000000000000000
     0.0000000000000000    0.0000000000000000   11.9281419999999994
   O    Sb   Se
     1    24    35
Direct
  0.0836914454577365  0.5963266394257613  0.9259869716358543
  0.2564311413395465  0.0381229605403297  0.1395264782316432
  0.7513562380391827  0.1699356118242556  0.5271977664222341
  0.4171003160857381  0.1698892751782959  0.5272283850057670
  0.0841790421164792  0.1704338506619721  0.5333771892483794
  0.5843103168363706  0.8276590011275999  0.4663443557152305
  0.2502915469788225  0.8282209716862614  0.4682595078149714
  0.9368461862919544  0.6654401849341612  0.9749835829718470
  0.5839084045357278  0.6592507701159724  0.9644652877953163
  0.2303871375917246  0.6656085512067172  0.9751946216599319
  0.7525067348762652  0.3318935479740746  0.0200933385664737
  0.4153232988500973  0.3321039948555325  0.0199582959200749
  0.0838658933739941  0.3144918049725477  0.0251615748123123
  0.9181627242594296  0.8281036658220124  0.4678959110518168
  0.5841261436979627  0.4595328518510762  0.6416509980090723
  0.9151224270487834  0.4596592521079834  0.6421392271887838
  0.5834640025590420  0.0332456684223055  0.1375962470007915
  0.9105598076794066  0.0381671065199311  0.1393679894686409
  0.4185779461869117  0.9538521560017840  0.8550496414287793
  0.0839752425463871  0.9460305197480833  0.8550028883143618
  0.0843110382383084  0.5392213238949825  0.3561672132525775
  0.4176376161958543  0.5376758143213947  0.3545855014989164
  0.7508338492778913  0.5376302916259893  0.3546757044250000
  0.2529944831192134  0.4598080008094683  0.6419791626208476
  0.7492940325755538  0.9538215388900584  0.8549024419822040
  0.5842598837636739  0.3680173668870657  0.4432427988080599
  0.9176042379548377  0.3697890533287406  0.4445844482625726
  0.0841903140085494  0.6306108600603001  0.5525785491135682
  0.4181758970341243  0.6274761302696817  0.5522033744843453
  0.7503330092451782  0.6275866974741625  0.5523085020216759
  0.4122757981320370  0.5513671347874247  0.8692774165848118
  0.4187673414834746  0.1927763974397327  0.2003777906258593
  0.2501815948951169  0.1249414777630323  0.9407400299052899
  0.5839348697263841  0.1171688494250928  0.9367925724059368
  0.9175765912959361  0.1249486856325135  0.9405404578117103
  0.0838866405552659  0.1917796227172537  0.2049222026679728
  0.7487440358599918  0.1929735619141035  0.2004652033424825
  0.2481292644752202  0.4413881691378564  0.1189501556343585
  0.2506416876297566  0.3699919267902748  0.4443847427173135
  0.7556213953223758  0.5510659879606974  0.8690377798966163
  0.7516697343751003  0.8677889609107866  0.0538171486547304
  0.9173485435288921  0.0524044725276649  0.6264600956750730
  0.0839708940439622  0.8648567332769275  0.0558278360227569
  0.0843192079193872  0.9450185797923204  0.3715459924093639
  0.4171103632153918  0.9441707609033423  0.3700847659119453
  0.7512949718124214  0.9443158571156710  0.3699791827704756
  0.2510830954010551  0.0526578548685339  0.6267034018591872
  0.5841364213316338  0.0530548073724142  0.6234429743999754
  0.5839254204359503  0.4420670779544993  0.1213742740581933
  0.0842266308581495  0.3079683711598176  0.7115209562534605
  0.4170674657237980  0.3043777927097716  0.7062142086884391
  0.7510124916693064  0.3042289804159483  0.7063344962376836
  0.2509125984207973  0.6927186497264980  0.2888014154985402
  0.5843361146705864  0.6919743164104117  0.2877849676793127
  0.9174535730894637  0.6924954007123642  0.2885355512251993
  0.2457228651221659  0.7941362179468824  0.7905602271233217
  0.5839296026098130  0.8003535716383371  0.7877638687586782
  0.9222030504408605  0.7942148750679539  0.7904332995481790
  0.4159969055718208  0.8676512601588569  0.0538557367677629
  0.9196848026190878  0.4412734932245290  0.1189811241333350

  0.00000000E+00  0.00000000E+00  0.00000000E+00
  0.00000000E+00  0.00000000E+00  0.00000000E+00
  0.00000000E+00  0.00000000E+00  0.00000000E+00
  0.00000000E+00  0.00000000E+00  0.00000000E+00
  0.00000000E+00  0.00000000E+00  0.00000000E+00
  0.00000000E+00  0.00000000E+00  0.00000000E+00
  0.00000000E+00  0.00000000E+00  0.00000000E+00
  0.00000000E+00  0.00000000E+00  0.00000000E+00
  0.00000000E+00  0.00000000E+00  0.00000000E+00
  0.00000000E+00  0.00000000E+00  0.00000000E+00
  0.00000000E+00  0.00000000E+00  0.00000000E+00
  0.00000000E+00  0.00000000E+00  0.00000000E+00
  0.00000000E+00  0.00000000E+00  0.00000000E+00
  0.00000000E+00  0.00000000E+00  0.00000000E+00
  0.00000000E+00  0.00000000E+00  0.00000000E+00
  0.00000000E+00  0.00000000E+00  0.00000000E+00
  0.00000000E+00  0.00000000E+00  0.00000000E+00
  0.00000000E+00  0.00000000E+00  0.00000000E+00
  0.00000000E+00  0.00000000E+00  0.00000000E+00
  0.00000000E+00  0.00000000E+00  0.00000000E+00
  0.00000000E+00  0.00000000E+00  0.00000000E+00
  0.00000000E+00  0.00000000E+00  0.00000000E+00
  0.00000000E+00  0.00000000E+00  0.00000000E+00
  0.00000000E+00  0.00000000E+00  0.00000000E+00
  0.00000000E+00  0.00000000E+00  0.00000000E+00
  0.00000000E+00  0.00000000E+00  0.00000000E+00
  0.00000000E+00  0.00000000E+00  0.00000000E+00
  0.00000000E+00  0.00000000E+00  0.00000000E+00
  0.00000000E+00  0.00000000E+00  0.00000000E+00
  0.00000000E+00  0.00000000E+00  0.00000000E+00
  0.00000000E+00  0.00000000E+00  0.00000000E+00
  0.00000000E+00  0.00000000E+00  0.00000000E+00
  0.00000000E+00  0.00000000E+00  0.00000000E+00
  0.00000000E+00  0.00000000E+00  0.00000000E+00
  0.00000000E+00  0.00000000E+00  0.00000000E+00
  0.00000000E+00  0.00000000E+00  0.00000000E+00
  0.00000000E+00  0.00000000E+00  0.00000000E+00
  0.00000000E+00  0.00000000E+00  0.00000000E+00
  0.00000000E+00  0.00000000E+00  0.00000000E+00
  0.00000000E+00  0.00000000E+00  0.00000000E+00
  0.00000000E+00  0.00000000E+00  0.00000000E+00
  0.00000000E+00  0.00000000E+00  0.00000000E+00
  0.00000000E+00  0.00000000E+00  0.00000000E+00
  0.00000000E+00  0.00000000E+00  0.00000000E+00
  0.00000000E+00  0.00000000E+00  0.00000000E+00
  0.00000000E+00  0.00000000E+00  0.00000000E+00
  0.00000000E+00  0.00000000E+00  0.00000000E+00
  0.00000000E+00  0.00000000E+00  0.00000000E+00
  0.00000000E+00  0.00000000E+00  0.00000000E+00
  0.00000000E+00  0.00000000E+00  0.00000000E+00
  0.00000000E+00  0.00000000E+00  0.00000000E+00
  0.00000000E+00  0.00000000E+00  0.00000000E+00
  0.00000000E+00  0.00000000E+00  0.00000000E+00
  0.00000000E+00  0.00000000E+00  0.00000000E+00
  0.00000000E+00  0.00000000E+00  0.00000000E+00
  0.00000000E+00  0.00000000E+00  0.00000000E+00
  0.00000000E+00  0.00000000E+00  0.00000000E+00
  0.00000000E+00  0.00000000E+00  0.00000000E+00
  0.00000000E+00  0.00000000E+00  0.00000000E+00
  0.00000000E+00  0.00000000E+00  0.00000000E+00
