-20.0% N(Distort)=1 ~[0.5,0.5,0.5]      
   1.00000000000000     
    12.5998379999999983    0.0000000000000004    0.0000000000000004
     0.0000000000000004   12.5998379999999983   -0.0000000000000004
    -0.0000000000000004   -0.0000000000000004   12.5998379999999983
   Mg   O 
   109   107
Direct
  0.6666767276498685 -0.0004210499738771  0.0002754019133872
  0.8332663082345646  0.1658633198971668  0.0003693758630486
  0.8330988995120111 -0.0004499731517170  0.1666460298503977
  0.3321998469464114 -0.0004181256612373  0.0002831662492730
  0.4994552705422245  0.1647316825968511 -0.0011702503311573
  0.6670546212026811  0.3321554328393778  0.9991453173346744
  0.8336415284213855  0.4993799454014003  0.0000537343983704
  0.4992889343399574 -0.0001992952508926  0.1661062878971845
  0.6668631899267168  0.1653887816687691  0.1664261716854531
  0.8330851239219252  0.3322850821787454  0.1666582696997596
  0.6665137545624756  0.0006765505871500  0.3331996526206996
  0.8333263027458120  0.1653983909444231  0.3328779955353261
  0.8336122835070122 -0.0001963573832882  0.5004464759776225
  0.9994867540528672 -0.0004030722261652  0.0003013741554405
  0.1658268508119195  0.1659215519914905 -0.0000111959940333
  0.3319833095734291  0.3321044463034292 -0.0015648387293156
  0.4992069844776451  0.4993170860522490  0.9956889417682079
  0.6665544401284174  0.6666308601223564 -0.0008179338296570
  0.8331135774406052  0.8332237665327704  0.0002969741723452
  0.1657837085400398 -0.0005254648748182  0.1664999479086600
  0.3319172572105065  0.1653757816164255  0.1658610553847575
  0.4996967815588246  0.3262412652355071  0.1582065635183630
  0.6672709143684460  0.4990723279200599  0.1618271334780728
  0.8342589954793745  0.6665076349436996  0.1654436708123558
  0.3320940996932034  0.0006837083416206  0.3326949980982988
  0.4991511781245235  0.1643980607646153  0.3317755749288976
  0.6664207875355554  0.3309318773882226  0.3333241999102964
  0.8378812260774066  0.4990826444112730  0.3324493121927274
  0.4992086327797772  0.0040207786622477  0.5004997045186815
  0.6679600733377611  0.1643871661703593  0.5005694201254342
  0.8414888011535752  0.3262349188098724  0.5000585410763562
  0.6670290856105520  0.0006994857646811  0.6676368691177499
  0.8338563171069584  0.1653724815802870  0.6678242788237267
  0.8332488062029615 -0.0004990539154257  0.8339814515754971
 -0.0005141589100007  0.3322901433431164  0.0002685775066104
  0.1645883284981188  0.4995518481474456 -0.0011907324746584
  0.3320565090756182  0.6671648074151622 -0.0009129032794863
  0.4992990292789932  0.8337560963872924  0.0000284358973586
 -0.0006142241076733  0.1658628336373200  0.1665208471877053
  0.1652344573429999  0.3320163293531500  0.1658374006719878
  0.3259813545429341  0.4998218670316220  0.1581329067780581
  0.4989757579631184  0.6673713293870334  0.1617228630372081
  0.6663977452016291  0.8343693374005695  0.1654539542988820
  0.9994513436592241 -0.0004345083880072  0.3330676581927966
  0.1652660941207940  0.1653560238159265  0.3328263343122600
  0.3288727735029660  0.3290616817869307  0.3330614544385569
  0.4813475868922649  0.4818858277259459  0.2978794015353350
  0.6727191864259958  0.6727546903479288  0.3269906217349790
  0.8342497053825527  0.8343577013385013  0.3333150173876481
  0.1646539524313083  0.0009985784697721  0.5002883553274799
  0.3313017741469900  0.1653882973391503  0.5003386420043565
  0.4988727498887009  0.3222228179302690  0.5008610114559072
  0.7018087749006147  0.4819474556307908  0.5182989846707552
  0.8379768462744211  0.6674158888695872  0.5007697023071598
  0.3319758795097227  0.0013788491405726  0.6677517139558499
  0.4993711455502438  0.1653834559907766  0.6684062881914981
  0.6666524069434101  0.3290600472901527  0.6708163178860165
  0.8415854898472727  0.4998158457920561  0.6737369540058549
  0.4994471107616332  0.0009968741069888  0.8350864377084228
  0.6669060713626889  0.1653733497025615  0.8344530328704449
  0.8338928015054845  0.3320117993289828  0.8344973859420397
 -0.0005348468666572  0.6667713939316898  0.0002712766121632
  0.1657596682150736  0.8333568653422408  0.0003662680848230
 -0.0003448953574174  0.4993905201305324  0.1660952365341135
  0.1652088957537237  0.6669760709685647  0.1663765171878061
  0.3321850970600741  0.8331764716392566  0.1666353082351946
  0.0005864594302579  0.3321686225081181  0.3326989704917934
  0.1642037600497473  0.4992670186734240  0.3317480351941992
  0.3306815282995100  0.6664936019412854  0.3332907752933767
  0.4989781203209489  0.8380011475747101  0.3324330934095694
  0.0009102783571516  0.1647311916567071  0.5002923451402069
  0.1652789560997814  0.3314052855490208  0.5003453027845575
  0.3220890129830724  0.4990367041073820  0.5008339951949190
  0.4818520882767263  0.7015475251311323  0.5179533704080050
  0.6672792763765349  0.8380144081802923  0.5007447146136755
  0.9994830672644460 -0.0003999851493063  0.6675673652653058
  0.1661196430943382  0.1662416856614361  0.6674659712566522
  0.3325109927459755  0.3326505523825736  0.6672114240907256
  0.4989101038560029  0.4990301492882210  0.6776307791505894
  0.6664355545423662  0.6665030181907560  0.6690635873722841
  0.8331105646421400  0.8332091617728257  0.6675675696174797
  0.1658092843573858 -0.0001007060264798  0.8339760589307414
  0.3322900506943319  0.1662417512143621  0.8336111608365941
  0.4993924093779448  0.3314232280524549  0.8344321360845411
  0.6679965877550416  0.4992563829614141  0.8355219903670628
  0.8333644013480295  0.6669938818558310  0.8344924731588628
 -0.0005669816033312  0.8331965832920532  0.1666222807918223
  0.0005367729676000  0.6666306204465358  0.3331947854304214
  0.1652590096062319  0.8334386906369837  0.3328632559083999
  0.0040241046238883  0.4993411536558351  0.5005176757111059
  0.1642660035875792  0.6681013344436818  0.5005667402829292
  0.3261312900974737  0.8415166524307764  0.5000304818665767
  0.0012914777334931  0.3320728110080946  0.6677566997088933
  0.1653106716291834  0.4995322239410914  0.6683930170457576
  0.3289434901247175  0.6668247546214369  0.6707639534715756
  0.4996876230275891  0.8415374378044927  0.6735808822302563
 -0.0002102668043526  0.1659154227796342  0.8339568084678282
  0.1661434634783620  0.3324191753292962  0.8335953579244719
  0.3312981982423258  0.4995366925024303  0.8344093726938190
  0.4991600894099007  0.6680882565703143  0.8354638109441356
  0.6668692753104541  0.8334521040712655  0.8344690521040939
 -0.0003002411406644  0.8337637177599617  0.5004411816846611
  0.0006279342543617  0.6671758995509033  0.6676422909891016
  0.1652438985267740  0.8340233429628814  0.6678255531755233
  0.0009302669366136  0.4995544416430928  0.8351065319751223
  0.1652804587670309  0.6670534282084201  0.8344439208721832
  0.3319015341828012  0.8340185064565405  0.8344867697932661
 -0.0006043439104774  0.8333634378426394  0.8340159656632368
  0.5572134428779250  0.5568237967406391  0.4423967627350588
  0.8323094801668193  0.1665544563795895  0.1674463940430801
 -0.0009568142147609  0.3330615594082419  0.1671422385945844
  0.9992010077346037  0.1662518975149893  0.3336416654152057
  0.4994739605580782  0.1656834127347624  0.1662458758778412
  0.6647104527183152  0.3343213805680793  0.1678573022740898
  0.8309488748566549  0.4997078505830049  0.1687804819580073
 -0.0008993794730062  0.6659969469508090  0.1673685720871368
  0.6657050791050292  0.1671213009265693  0.3340400451426789
  0.8318600997265745  0.3343528096473961  0.3350148458810437
  0.0006330277966465  0.4995737518224737  0.3329479943044500
  0.8334706335423313  0.1656764948043838  0.5002609909307649
  0.0018821078706526  0.3318596499014507  0.5001343747409870
 -0.0002909011013011  0.1663727576162319  0.6667743374868236
  0.1663298501560843  0.1664186934914451  0.1668999856405934
  0.3341745511722233  0.3343160408937962  0.1667909371917658
  0.4990633602917272  0.4991786489460549  0.1542449693433494
  0.6646693453884164  0.6647890911691958  0.1676235983485284
  0.8319112966126475  0.8320322864558908  0.1678198905968899
  0.9992325550541621 -0.0006718703621432  0.1671234098962829
  0.3328731999413128  0.1664689366794626  0.3334541099541719
  0.4983560206637425  0.3328365627952233  0.3341577147285821
  0.6572818800114500  0.4991183701312631  0.3424414750234657
  0.8320696418377678  0.6647953084468107  0.3350726312856150
 -0.0008873053547773  0.8324587895904303  0.3338256272435613
  0.4997660536467269  0.1654347094033274  0.4999614844726706
  0.6656058412142211  0.3328569068454319  0.5013610659252904
  0.8454597155443122  0.4992523741035728  0.5006501725927641
  0.0006755561798747  0.6669324511518890  0.5002732517908376
  0.6662770884450220  0.1664465991425496  0.6668356660595320
  0.8329519769036572  0.3343115095783410  0.6655757490835964
  0.0019279182779138  0.4997336501909885  0.6679551592505862
  0.8328505266961231  0.1664191392189323  0.8334077180037304
 -0.0002800807933023  0.3330835837937079  0.8334635803300363
 -0.0006201478345284  0.1662364347602414  0.0003905776894599
  0.1654861252150540  0.4995944375706181  0.1661943197640435
  0.3342149452937782  0.6648148276072764  0.1678496653130224
  0.4995859467440535  0.8310103093649368  0.1688081593997489
  0.6658552762236293 -0.0007565188464412  0.1674054752844584
  0.1663042548845378  0.3329659124141528  0.3334485042752526
  0.3323652356714302  0.4985031506095274  0.3340364481296416
  0.4989941556489544  0.6568486143365559  0.3426316947612273
  0.6646290577117240  0.8320817092360518  0.3350713446670994
  0.8323220507039615 -0.0007745104878935  0.3338629869430164
  0.1666891579201587  0.1667700431739477  0.5000017547967158
  0.3355581985006248  0.3357021490545204  0.4995262505316558
  0.6569665684990451  0.6568997997972070  0.5007025411307247
  0.8309002391731534  0.8310170234675111  0.5001319557539933
  0.9991141484570982 -0.0007798726991589  0.5001957224692209
  0.3334092775038897  0.1674321813425338  0.6662853078825592
  0.5001817958381976  0.3356688232110636  0.6641614292816632
  0.6656639244936610  0.4985315116570773  0.6673182092998542
  0.8318675072033286  0.6648301789421837  0.6654882300618977
 -0.0009623349384734  0.8327161384606251  0.6667427794858133
  0.4997364738764136  0.1667615334607193  0.8330364508356625
  0.6663127421425497  0.3329563473412550  0.8334093349632008
  0.8335389141098213  0.4995908024356804  0.8342362598184931
 -0.0008042870324348  0.6662213514592239  0.8335424155406235
  0.6661121896269862  0.1662417357196314  0.0005259281811975
  0.8326060452953374  0.3330525327986483  0.0006970702129132
 -0.0008926230460906  0.4996295447674581  0.0006103146199763
  0.1664488980170337  0.8324141296391142  0.1674243046007667
  0.3329874395146500 -0.0008486941797668  0.1671642490546247
  0.1669100206458388  0.6658473186683009  0.3339935597398393
  0.3342692993123564  0.8319081865969077  0.3349890565783842
  0.4994590925470300  0.0007745272240754  0.3329527822730032
  0.1653079417911463  0.4999165944022574  0.4999610416696331
  0.3325903107509289  0.6657496302574519  0.5013332423417608
  0.4991313415251056  0.8453321513283186  0.5005908773305382
  0.6667603669068856  0.0007546641688123  0.5002508169507204
  0.1673271689815463  0.3335422202296397  0.6662920655548331
  0.3355459413286087  0.5003451949548399  0.6641320371539414
  0.4984120035428903  0.6657419035383453  0.6671593870126084
  0.6647350002606638  0.8319290561031759  0.6654706527402666
  0.8325535955185590 -0.0008461166716213  0.6667221221598412
  0.1664117617472067  0.1665053264567169  0.8333668983534269
  0.3334235866372672  0.3335544680811938  0.8323841223974717
  0.4997560656467973  0.4998778930942436  0.8344081069928162
  0.6657529238894887  0.6658531229634059  0.8328259087605484
  0.8323229182466696  0.8324372813052906  0.8332764198991709
 -0.0006212516008629 -0.0005101975669242  0.8336438785551253
  0.3329877852582134  0.1663802445438521  0.0000448873386143
  0.4996084792726702  0.3318421923560175  0.9978171065211696
  0.6667906015145817  0.4995330995950291 -0.0009196575077428
  0.8323744746690493  0.6659970901604105  0.0006128046552361
 -0.0007712339406115  0.8327274540172329  0.0005309018192105
  0.1661801366302177 -0.0007017661259546  0.3336291230933710
  0.1655394609641968  0.8336155424779650  0.5002231171045458
  0.3317700502126517  0.0019651563453593  0.5001067172859371
  0.1663413059581714  0.6664385190072579  0.6668524832076357
  0.3341592378848094  0.8330909031221396  0.6655802185275456
  0.4996114136970825  0.0019559108250184  0.6679394895696191
  0.1666799165946269  0.4998574824405842  0.8330379289981197
  0.3328825700957947  0.6664528709648597  0.8333631566499795
  0.4994897181897638  0.8336291711353687  0.8341836667650347
  0.6661075500788139 -0.0006944645697651  0.8335347510271222
  0.1662599381434721  0.3330927583862305  0.0000481333653317
  0.3317328050927491  0.4997522915684154 -0.0022050141199664
  0.4994538378378288  0.6668975236524048 -0.0009503152394875
  0.6658677877825961  0.8324849088277981  0.0006063138844119
  0.8326186369234094 -0.0006588777808309  0.0005055282859472
  0.1662584318283711 -0.0001744342618181  0.6667688202356447
  0.1663021297466715  0.8329934049937352  0.8334234393144936
  0.3329785742008987 -0.0001706468404002  0.8334779681928879
  0.1661444550172110  0.6662243813658699  0.0005041848147750
  0.3329743569922313  0.8326995992769761  0.0006870053226426
  0.4995381694264844 -0.0007646773223847  0.0006189083020943
  0.1661416531130470 -0.0005142925589961  0.0004046127878001
 
  0.00000000E+00  0.00000000E+00  0.00000000E+00
  0.00000000E+00  0.00000000E+00  0.00000000E+00
  0.00000000E+00  0.00000000E+00  0.00000000E+00
  0.00000000E+00  0.00000000E+00  0.00000000E+00
  0.00000000E+00  0.00000000E+00  0.00000000E+00
  0.00000000E+00  0.00000000E+00  0.00000000E+00
  0.00000000E+00  0.00000000E+00  0.00000000E+00
  0.00000000E+00  0.00000000E+00  0.00000000E+00
  0.00000000E+00  0.00000000E+00  0.00000000E+00
  0.00000000E+00  0.00000000E+00  0.00000000E+00
  0.00000000E+00  0.00000000E+00  0.00000000E+00
  0.00000000E+00  0.00000000E+00  0.00000000E+00
  0.00000000E+00  0.00000000E+00  0.00000000E+00
  0.00000000E+00  0.00000000E+00  0.00000000E+00
  0.00000000E+00  0.00000000E+00  0.00000000E+00
  0.00000000E+00  0.00000000E+00  0.00000000E+00
  0.00000000E+00  0.00000000E+00  0.00000000E+00
  0.00000000E+00  0.00000000E+00  0.00000000E+00
  0.00000000E+00  0.00000000E+00  0.00000000E+00
  0.00000000E+00  0.00000000E+00  0.00000000E+00
  0.00000000E+00  0.00000000E+00  0.00000000E+00
  0.00000000E+00  0.00000000E+00  0.00000000E+00
  0.00000000E+00  0.00000000E+00  0.00000000E+00
  0.00000000E+00  0.00000000E+00  0.00000000E+00
  0.00000000E+00  0.00000000E+00  0.00000000E+00
  0.00000000E+00  0.00000000E+00  0.00000000E+00
  0.00000000E+00  0.00000000E+00  0.00000000E+00
  0.00000000E+00  0.00000000E+00  0.00000000E+00
  0.00000000E+00  0.00000000E+00  0.00000000E+00
  0.00000000E+00  0.00000000E+00  0.00000000E+00
  0.00000000E+00  0.00000000E+00  0.00000000E+00
  0.00000000E+00  0.00000000E+00  0.00000000E+00
  0.00000000E+00  0.00000000E+00  0.00000000E+00
  0.00000000E+00  0.00000000E+00  0.00000000E+00
  0.00000000E+00  0.00000000E+00  0.00000000E+00
  0.00000000E+00  0.00000000E+00  0.00000000E+00
  0.00000000E+00  0.00000000E+00  0.00000000E+00
  0.00000000E+00  0.00000000E+00  0.00000000E+00
  0.00000000E+00  0.00000000E+00  0.00000000E+00
  0.00000000E+00  0.00000000E+00  0.00000000E+00
  0.00000000E+00  0.00000000E+00  0.00000000E+00
  0.00000000E+00  0.00000000E+00  0.00000000E+00
  0.00000000E+00  0.00000000E+00  0.00000000E+00
  0.00000000E+00  0.00000000E+00  0.00000000E+00
  0.00000000E+00  0.00000000E+00  0.00000000E+00
  0.00000000E+00  0.00000000E+00  0.00000000E+00
  0.00000000E+00  0.00000000E+00  0.00000000E+00
  0.00000000E+00  0.00000000E+00  0.00000000E+00
  0.00000000E+00  0.00000000E+00  0.00000000E+00
  0.00000000E+00  0.00000000E+00  0.00000000E+00
  0.00000000E+00  0.00000000E+00  0.00000000E+00
  0.00000000E+00  0.00000000E+00  0.00000000E+00
  0.00000000E+00  0.00000000E+00  0.00000000E+00
  0.00000000E+00  0.00000000E+00  0.00000000E+00
  0.00000000E+00  0.00000000E+00  0.00000000E+00
  0.00000000E+00  0.00000000E+00  0.00000000E+00
  0.00000000E+00  0.00000000E+00  0.00000000E+00
  0.00000000E+00  0.00000000E+00  0.00000000E+00
  0.00000000E+00  0.00000000E+00  0.00000000E+00
  0.00000000E+00  0.00000000E+00  0.00000000E+00
  0.00000000E+00  0.00000000E+00  0.00000000E+00
  0.00000000E+00  0.00000000E+00  0.00000000E+00
  0.00000000E+00  0.00000000E+00  0.00000000E+00
  0.00000000E+00  0.00000000E+00  0.00000000E+00
  0.00000000E+00  0.00000000E+00  0.00000000E+00
  0.00000000E+00  0.00000000E+00  0.00000000E+00
  0.00000000E+00  0.00000000E+00  0.00000000E+00
  0.00000000E+00  0.00000000E+00  0.00000000E+00
  0.00000000E+00  0.00000000E+00  0.00000000E+00
  0.00000000E+00  0.00000000E+00  0.00000000E+00
  0.00000000E+00  0.00000000E+00  0.00000000E+00
  0.00000000E+00  0.00000000E+00  0.00000000E+00
  0.00000000E+00  0.00000000E+00  0.00000000E+00
  0.00000000E+00  0.00000000E+00  0.00000000E+00
  0.00000000E+00  0.00000000E+00  0.00000000E+00
  0.00000000E+00  0.00000000E+00  0.00000000E+00
  0.00000000E+00  0.00000000E+00  0.00000000E+00
  0.00000000E+00  0.00000000E+00  0.00000000E+00
  0.00000000E+00  0.00000000E+00  0.00000000E+00
  0.00000000E+00  0.00000000E+00  0.00000000E+00
  0.00000000E+00  0.00000000E+00  0.00000000E+00
  0.00000000E+00  0.00000000E+00  0.00000000E+00
  0.00000000E+00  0.00000000E+00  0.00000000E+00
  0.00000000E+00  0.00000000E+00  0.00000000E+00
  0.00000000E+00  0.00000000E+00  0.00000000E+00
  0.00000000E+00  0.00000000E+00  0.00000000E+00
  0.00000000E+00  0.00000000E+00  0.00000000E+00
  0.00000000E+00  0.00000000E+00  0.00000000E+00
  0.00000000E+00  0.00000000E+00  0.00000000E+00
  0.00000000E+00  0.00000000E+00  0.00000000E+00
  0.00000000E+00  0.00000000E+00  0.00000000E+00
  0.00000000E+00  0.00000000E+00  0.00000000E+00
  0.00000000E+00  0.00000000E+00  0.00000000E+00
  0.00000000E+00  0.00000000E+00  0.00000000E+00
  0.00000000E+00  0.00000000E+00  0.00000000E+00
  0.00000000E+00  0.00000000E+00  0.00000000E+00
  0.00000000E+00  0.00000000E+00  0.00000000E+00
  0.00000000E+00  0.00000000E+00  0.00000000E+00
  0.00000000E+00  0.00000000E+00  0.00000000E+00
  0.00000000E+00  0.00000000E+00  0.00000000E+00
  0.00000000E+00  0.00000000E+00  0.00000000E+00
  0.00000000E+00  0.00000000E+00  0.00000000E+00
  0.00000000E+00  0.00000000E+00  0.00000000E+00
  0.00000000E+00  0.00000000E+00  0.00000000E+00
  0.00000000E+00  0.00000000E+00  0.00000000E+00
  0.00000000E+00  0.00000000E+00  0.00000000E+00
  0.00000000E+00  0.00000000E+00  0.00000000E+00
  0.00000000E+00  0.00000000E+00  0.00000000E+00
  0.00000000E+00  0.00000000E+00  0.00000000E+00
  0.00000000E+00  0.00000000E+00  0.00000000E+00
  0.00000000E+00  0.00000000E+00  0.00000000E+00
  0.00000000E+00  0.00000000E+00  0.00000000E+00
  0.00000000E+00  0.00000000E+00  0.00000000E+00
  0.00000000E+00  0.00000000E+00  0.00000000E+00
  0.00000000E+00  0.00000000E+00  0.00000000E+00
  0.00000000E+00  0.00000000E+00  0.00000000E+00
  0.00000000E+00  0.00000000E+00  0.00000000E+00
  0.00000000E+00  0.00000000E+00  0.00000000E+00
  0.00000000E+00  0.00000000E+00  0.00000000E+00
  0.00000000E+00  0.00000000E+00  0.00000000E+00
  0.00000000E+00  0.00000000E+00  0.00000000E+00
  0.00000000E+00  0.00000000E+00  0.00000000E+00
  0.00000000E+00  0.00000000E+00  0.00000000E+00
  0.00000000E+00  0.00000000E+00  0.00000000E+00
  0.00000000E+00  0.00000000E+00  0.00000000E+00
  0.00000000E+00  0.00000000E+00  0.00000000E+00
  0.00000000E+00  0.00000000E+00  0.00000000E+00
  0.00000000E+00  0.00000000E+00  0.00000000E+00
  0.00000000E+00  0.00000000E+00  0.00000000E+00
  0.00000000E+00  0.00000000E+00  0.00000000E+00
  0.00000000E+00  0.00000000E+00  0.00000000E+00
  0.00000000E+00  0.00000000E+00  0.00000000E+00
  0.00000000E+00  0.00000000E+00  0.00000000E+00
  0.00000000E+00  0.00000000E+00  0.00000000E+00
  0.00000000E+00  0.00000000E+00  0.00000000E+00
  0.00000000E+00  0.00000000E+00  0.00000000E+00
  0.00000000E+00  0.00000000E+00  0.00000000E+00
  0.00000000E+00  0.00000000E+00  0.00000000E+00
  0.00000000E+00  0.00000000E+00  0.00000000E+00
  0.00000000E+00  0.00000000E+00  0.00000000E+00
  0.00000000E+00  0.00000000E+00  0.00000000E+00
  0.00000000E+00  0.00000000E+00  0.00000000E+00
  0.00000000E+00  0.00000000E+00  0.00000000E+00
  0.00000000E+00  0.00000000E+00  0.00000000E+00
  0.00000000E+00  0.00000000E+00  0.00000000E+00
  0.00000000E+00  0.00000000E+00  0.00000000E+00
  0.00000000E+00  0.00000000E+00  0.00000000E+00
  0.00000000E+00  0.00000000E+00  0.00000000E+00
  0.00000000E+00  0.00000000E+00  0.00000000E+00
  0.00000000E+00  0.00000000E+00  0.00000000E+00
  0.00000000E+00  0.00000000E+00  0.00000000E+00
  0.00000000E+00  0.00000000E+00  0.00000000E+00
  0.00000000E+00  0.00000000E+00  0.00000000E+00
  0.00000000E+00  0.00000000E+00  0.00000000E+00
  0.00000000E+00  0.00000000E+00  0.00000000E+00
  0.00000000E+00  0.00000000E+00  0.00000000E+00
  0.00000000E+00  0.00000000E+00  0.00000000E+00
  0.00000000E+00  0.00000000E+00  0.00000000E+00
  0.00000000E+00  0.00000000E+00  0.00000000E+00
  0.00000000E+00  0.00000000E+00  0.00000000E+00
  0.00000000E+00  0.00000000E+00  0.00000000E+00
  0.00000000E+00  0.00000000E+00  0.00000000E+00
  0.00000000E+00  0.00000000E+00  0.00000000E+00
  0.00000000E+00  0.00000000E+00  0.00000000E+00
  0.00000000E+00  0.00000000E+00  0.00000000E+00
  0.00000000E+00  0.00000000E+00  0.00000000E+00
  0.00000000E+00  0.00000000E+00  0.00000000E+00
  0.00000000E+00  0.00000000E+00  0.00000000E+00
  0.00000000E+00  0.00000000E+00  0.00000000E+00
  0.00000000E+00  0.00000000E+00  0.00000000E+00
  0.00000000E+00  0.00000000E+00  0.00000000E+00
  0.00000000E+00  0.00000000E+00  0.00000000E+00
  0.00000000E+00  0.00000000E+00  0.00000000E+00
  0.00000000E+00  0.00000000E+00  0.00000000E+00
  0.00000000E+00  0.00000000E+00  0.00000000E+00
  0.00000000E+00  0.00000000E+00  0.00000000E+00
  0.00000000E+00  0.00000000E+00  0.00000000E+00
  0.00000000E+00  0.00000000E+00  0.00000000E+00
  0.00000000E+00  0.00000000E+00  0.00000000E+00
  0.00000000E+00  0.00000000E+00  0.00000000E+00
  0.00000000E+00  0.00000000E+00  0.00000000E+00
  0.00000000E+00  0.00000000E+00  0.00000000E+00
  0.00000000E+00  0.00000000E+00  0.00000000E+00
  0.00000000E+00  0.00000000E+00  0.00000000E+00
  0.00000000E+00  0.00000000E+00  0.00000000E+00
  0.00000000E+00  0.00000000E+00  0.00000000E+00
  0.00000000E+00  0.00000000E+00  0.00000000E+00
  0.00000000E+00  0.00000000E+00  0.00000000E+00
  0.00000000E+00  0.00000000E+00  0.00000000E+00
  0.00000000E+00  0.00000000E+00  0.00000000E+00
  0.00000000E+00  0.00000000E+00  0.00000000E+00
  0.00000000E+00  0.00000000E+00  0.00000000E+00
  0.00000000E+00  0.00000000E+00  0.00000000E+00
  0.00000000E+00  0.00000000E+00  0.00000000E+00
  0.00000000E+00  0.00000000E+00  0.00000000E+00
  0.00000000E+00  0.00000000E+00  0.00000000E+00
  0.00000000E+00  0.00000000E+00  0.00000000E+00
  0.00000000E+00  0.00000000E+00  0.00000000E+00
  0.00000000E+00  0.00000000E+00  0.00000000E+00
  0.00000000E+00  0.00000000E+00  0.00000000E+00
  0.00000000E+00  0.00000000E+00  0.00000000E+00
  0.00000000E+00  0.00000000E+00  0.00000000E+00
  0.00000000E+00  0.00000000E+00  0.00000000E+00
  0.00000000E+00  0.00000000E+00  0.00000000E+00
  0.00000000E+00  0.00000000E+00  0.00000000E+00
  0.00000000E+00  0.00000000E+00  0.00000000E+00
  0.00000000E+00  0.00000000E+00  0.00000000E+00
  0.00000000E+00  0.00000000E+00  0.00000000E+00
  0.00000000E+00  0.00000000E+00  0.00000000E+00
  0.00000000E+00  0.00000000E+00  0.00000000E+00
  0.00000000E+00  0.00000000E+00  0.00000000E+00
  0.00000000E+00  0.00000000E+00  0.00000000E+00
  0.00000000E+00  0.00000000E+00  0.00000000E+00
  0.00000000E+00  0.00000000E+00  0.00000000E+00
  0.00000000E+00  0.00000000E+00  0.00000000E+00
  0.00000000E+00  0.00000000E+00  0.00000000E+00
