KPOINTS from doped, with reciprocal_density = 5/Å⁻³
0
Gamma
2 2 1
