-40.0% N(Distort)=3 ~[0.5,0.5,0.5]      
   1.00000000000000     
    12.5998379999999983    0.0000000000000004    0.0000000000000004
     0.0000000000000004   12.5998379999999983   -0.0000000000000004
    -0.0000000000000004   -0.0000000000000004   12.5998379999999983
   Mg   O 
   109   107
Direct
  0.6662086341657620 -0.0004964448926322  0.0005625698005656
  0.8328496975855398  0.1658352154386096  0.0006366397935136
  0.8327085470934392 -0.0005301320307634  0.1669363953173942
  0.3319054899811402 -0.0004589252843902  0.0005103261287154
  0.4990562559914080  0.1648311063055837 -0.0009502617266459
  0.6665704921495519  0.3322492868660769  0.9995885202069831
  0.8330989040531726  0.4993750987524280  0.0004477358439432
  0.4989130826330397  0.9996056421998373  0.1665327837063716
  0.6664152129471290  0.1653415272967823  0.1667214292235503
  0.8326775296399760  0.3323124119606928  0.1669492531603160
  0.6660527489624288  0.0004134443611907  0.3335736954327130
  0.8329061444787956  0.1653419080347264  0.3332309054289355
  0.8331002161884663 -0.0003739461067995  0.5007096148167388
  0.9991264801829635 -0.0004750521042862  0.0005289050099608
  0.1654871261927663  0.1658882221637314  0.0001894836813236
  0.3317005109524381  0.3320922608432784 -0.0012953020449423
  0.4988604560687380  0.4992683559496016  0.9962555051846200
  0.6660742587187405  0.6665069397978938 -0.0003179646012671
  0.8327214772509771  0.8331353693913880  0.0005828320045489
  0.1653690596791679 -0.0005791827544714  0.1667888056915830
  0.3315638439006641  0.1652714971828207  0.1660703482729503
  0.4992288105453238  0.3262346785019354  0.1593210116634877
  0.6665037328306199  0.4990842882876621  0.1636768526246072
  0.8337951818448192  0.6664241310163710  0.1658296450389964
  0.3317419576363154  0.0004952617797732  0.3330408781947504
  0.4987997221644988  0.1647808430762724  0.3324477451398100
  0.6659659720741956  0.3310260296066651  0.3336692663553678
  0.8359569193965481  0.4990781000927760  0.3331068813500185
  0.4988182611819429  0.0038723931331041  0.5008155045167689
  0.6671773096588519  0.1647829169020319  0.5008293385529716
  0.8403027012801024  0.3262430898301846  0.5004402075508627
  0.6665544592794578  0.0004830424027238  0.6678316639171725
  0.8335351179090839  0.1652707086815424  0.6680781869760964
  0.8328417450359904 -0.0005666934246144  0.8342421541347093
 -0.0008576317428641  0.3323556473244269  0.0004961083732920
  0.1644365411667049  0.4994665084596907 -0.0009882029919894
  0.3318236593919174  0.6669837151819064 -0.0004176319861375
  0.4989362567090854  0.8335111114832928  0.0004522121395353
 -0.0009870355814826  0.1658463577183226  0.1668015240657734
  0.1648411413226405  0.3320193430396621  0.1660797550341026
  0.3258360860767157  0.4996501359831396  0.1593087179271236
  0.4986573591713861  0.6669403494252415  0.1636989702539210
  0.6659996750701034  0.8342327300109617  0.1658412715075774
  0.9990687344354111 -0.0004835172636556  0.3334329914711384
  0.1648544918384277  0.1653043682962416  0.3332089726809132
  0.3281917460195146  0.3286361068338411  0.3331800124366271
  0.4801100942384039  0.4804951690017878  0.3015283058643639
  0.6721311075827148  0.6726055714269656  0.3274924582156363
  0.8337997477198434  0.8342369754062851  0.3336475677586561
  0.1643941758822542  0.0010401346781560  0.5005808043605283
  0.3316737090185049  0.1663010016190191  0.5005601765052127
  0.4990980093062376  0.3291843085730568  0.5005286661634670
  0.6980510044572674  0.4805535272023278  0.5194527524335951
  0.8359389772827533  0.6669338488887541  0.5009689183159225
  0.3316686352767076  0.0013766686365935  0.6679671360363522
  0.4990589027165268  0.1663073167703598  0.6679557970876782
  0.6664095241640585  0.3286582502946505  0.6714172789924995
  0.8402925891547386  0.4996249088850488  0.6737939258043845
  0.4990550940288514  0.0010258811989213  0.8352300558707108
  0.6664173677912679  0.1653084519090665  0.8347856586245371
  0.8335456029998451  0.3320140335862872  0.8348046048631038
 -0.0009061819914133  0.6666196603950341  0.0005273687679087
  0.1654195185929556  0.8332331380268923  0.0006135180990313
 -0.0008191793120670  0.4993662915629279  0.1665088003222232
  0.1648627430854290  0.6668247781484542  0.1666991622531140
  0.3318390397936719  0.8330913559786619  0.1669529267474807
  0.0000472577542117  0.3322546369843825  0.3330720751786941
  0.1643329562507861  0.4992745706410646  0.3324359931250305
  0.3306211028631962  0.6664121521581562  0.3336371566860293
  0.4986373776400750  0.8364599556895471  0.3331296858936615
  0.0005748299042125  0.1648670266897414  0.5005721774590614
  0.1658624220667180  0.3321444493504310  0.5005307444740509
  0.3287838106929121  0.4995536685932727  0.5004940356484414
  0.4801235960554943  0.6985727973702112  0.5194484840996485
  0.6664887127712777  0.8364410611627238  0.5009741623426015
  0.9991309432816504 -0.0004470280233547  0.6677202527582905
  0.1659043668942775  0.1663514959017208  0.6675395788510619
  0.3325180393176968  0.3329436211727309  0.6671029869011545
  0.4991164525164796  0.4995384872360040  0.6708420741869855
  0.6659657303110613  0.6663975734621984  0.6689661746625253
  0.8326908447907092  0.8331111771385983  0.6677491741092999
  0.1654544623343845 -0.0001358707036614  0.8341773532287797
  0.3320890378453840  0.1663317005423571  0.8337387134230791
  0.4990810634497576  0.3321289865878710  0.8337802942903743
  0.6671769229288143  0.4992705901619075  0.8352821179133316
  0.8329102739428563  0.6668365439596163  0.8347082245845802
 -0.0009561443732209  0.8331376242196928  0.1669114689479012
 -0.0000777670266245  0.6665075757129304  0.3335411950687117
  0.1648426545246127  0.8333333030690996  0.3332101577147327
  0.0033667191986988  0.4992800875237091  0.5007674002313282
  0.1643384748411772  0.6676247209572876  0.5007776929143692
  0.3258079995246892  0.8407834083529344  0.5003866465659822
  0.0009347722748196  0.3321113036725191  0.6679418728877951
  0.1658742163738214  0.4995302563126240  0.6678761938830516
  0.3282285432756927  0.6668975330744102  0.6713792542636513
  0.4992115370593965  0.8407653506680967  0.6737999663854746
 -0.0005474784215429  0.1658936396514722  0.8341577700791950
  0.1659345008536548  0.3325278046423427  0.8337027321934601
  0.3317126863267637  0.4995078525026710  0.8337541189334825
  0.4988339319363958  0.6676084448798167  0.8352644797585721
  0.6664166644012574  0.8333372313107309  0.8346985428415149
 -0.0008327953119418  0.8335238281854239  0.5006956222041529
  0.0000358840365011  0.6669809852365440  0.6677897303975890
  0.1648401701020492  0.8339790420876085  0.6680288530684961
  0.0006011205606779  0.4994784044694263  0.8351859655940597
  0.1648998420286418  0.6668231634526472  0.8347211005243366
  0.3315930337137416  0.8339786897038435  0.8347905000197972
 -0.0009643820271684  0.8332439799683259  0.8342229079333129
  0.5564013736839841  0.5568872207991287  0.4431927790630904
  0.8321747706363309  0.1662819808140198  0.1674699247016992
 -0.0012877951505145  0.3328770990016353  0.1672082916231552
 -0.0011351392165205  0.1660471539643593  0.3337847175461407
  0.4990370875951270  0.1649892273265150  0.1659556939482628
  0.6648469062443585  0.3336939503548582  0.1676330620543315
  0.8310583950107884  0.4996016971681571  0.1685535966103676
 -0.0012277987924869  0.6660722642298090  0.1674178503673093
  0.6657229221881571  0.1664970497337357  0.3339086589041867
  0.8319860618246844  0.3337067524755106  0.3347907697987088
 -0.0000041451377695  0.4994778209004842  0.3333784162211721
  0.8336768511583719  0.1650046171616000  0.5005817657685075
  0.0015393994410613  0.3318891985565754  0.5004513205876808
 -0.0005431170964785  0.1661438756595521  0.6671957372624367
  0.1656655075124397  0.1661217620699747  0.1669580683308306
  0.3329841639757429  0.3333991983484527  0.1663860514070346
  0.4982341161413882  0.4986399178285164  0.1561581768174184
  0.6648745014359667  0.6653210105329466  0.1673062708213087
  0.8318308741362774  0.8322606882695350  0.1678101315736478
  0.9988657238246349 -0.0006825485387873  0.1672854669528804
  0.3319866750082610  0.1658168969912373  0.3333523978066515
  0.4978251068458934  0.3297953353950343  0.3310854746593535
  0.6593259945746532  0.4998827070323793  0.3402959148903422
  0.8323158808923063  0.6653240290175816  0.3347445945888300
 -0.0012434506259504  0.8326379203110063  0.3339845146549323
  0.4994923680530873  0.1671193525738889  0.5001448479543980
  0.6685312727444831  0.3298118766602321  0.5018010372288859
  0.8434979899614345  0.4986405505627825  0.5013902668677535
 -0.0000052819113359  0.6666664686009549  0.5005763389324979
  0.6662661038745642  0.1658361606185510  0.6676295546553895
  0.8332639255609990  0.3333936263361714  0.6666625716400227
  0.0015310793497968  0.4996049760165118  0.6681528987436218
  0.8326670960551740  0.1661197891331911  0.8339694105062548
 -0.0005172449759395  0.3328593672587521  0.8339117415632401
 -0.0009729153883031  0.1661138084383120  0.0006169417981496
  0.1645731311602427  0.4994979990968056  0.1659276115809286
  0.3332736299904095  0.6652889424456779  0.1676377214337952
  0.4991737398874442  0.8314946149507711  0.1685906741146466
  0.6656359509906151 -0.0007666537273627  0.1674498620444777
  0.1654010202984919  0.3324528124348402  0.3333416681834399
  0.3293857517936692  0.4982841175292799  0.3310771058235105
  0.4994495423087685  0.6598200005834036  0.3402950982919086
  0.6648670706431007  0.8327985649694388  0.3347681350931306
  0.8321661683204657 -0.0007529702610841  0.3340026816082848
  0.1660946269791508  0.1665546821011071  0.5002858809538597
  0.3335078301158736  0.3339397502817500  0.4995528606159307
  0.6593582326349681  0.6597866190254477  0.5001570289018091
  0.8310487723077555  0.8315084393547837  0.5004723518168723
  0.9988018387394477 -0.0007548465321775  0.5004970480448589
  0.3327495950490654  0.1672139885705578  0.6668613868871824
  0.5000551516932333  0.3339532693729854  0.6661182387642866
  0.6685373653416720  0.4982650350878289  0.6702016046673120
  0.8319906064356095  0.6652708169691753  0.6663433817703824
 -0.0012916591112346  0.8328384481974956  0.6671834430932596
  0.4993185939171515  0.1665530135468874  0.8335201870004157
  0.6662703235712493  0.3324643453583091  0.8342213899597538
  0.8336728345765674  0.4994962915743731  0.8350455280634839
 -0.0011233147793756  0.6662624210424777  0.8339998650938024
  0.6658371506116149  0.1660393016620869  0.0007617796460453
  0.8324207311581616  0.3328941209753656  0.0009176615049956
 -0.0011708323225741  0.4995620567433002  0.0007912482077410
  0.1658078261319912  0.8325990003334658  0.1674383859314140
  0.3323894093553169 -0.0008729414241606  0.1671792517860381
  0.1660263782300264  0.6661931558410814  0.3338559534340583
  0.3332389150370659  0.8324485088925692  0.3347678497356238
  0.4989848050953281  0.0004824551932719  0.3333866586756498
  0.1666646649248506  0.4999645691863296  0.5000737993795711
  0.3293753579659955  0.6689852951630546  0.5017525711769124
  0.4982099625264659  0.8439751531214137  0.5014040548354654
  0.6662032246423324  0.0004869358174126  0.5006132255971772
  0.1667411267729061  0.3332487095794960  0.6668049669947422
  0.3335248266900037  0.5005128687880450  0.6660755912704233
  0.4978461281642921  0.6689917140659930  0.6701803222483786
  0.6648400482562192  0.8324553100147405  0.6663465228850841
  0.8324181264749733 -0.0008541650998847  0.6671918513100671
  0.1658904644666132  0.1663407817444007  0.8337295421392772
  0.3327955292853870  0.3332262073507566  0.8328658107371285
  0.4995243967470913  0.4999428258428461  0.8329564237364067
  0.6657466455798926  0.6661844572734344  0.8335498573488620
  0.8321896496685924  0.8325967798961160  0.8337685977600334
  0.9990302063014013 -0.0005550826958184  0.8339645848014473
  0.3324303796995000  0.1661294671486287  0.0001614632846639
  0.4991754620849165  0.3318699516061544  0.9980835232687157
  0.6662229502072747  0.4994753505229616 -0.0003895477169091
  0.8322052055704977  0.6660918947170053  0.0008394983266639
 -0.0011095655124046  0.8327743838282131  0.0007350772508006
  0.1655850029072199 -0.0007006209070505  0.3337668208509847
  0.1645460054938584  0.8341381620140471  0.5005527850593758
  0.3314138692317920  0.0020065468772125  0.5004825311069242
  0.1654130926948865  0.6667253349781233  0.6675882161862398
  0.3329884798389879  0.8336932699341666  0.6666235215775002
  0.4991360100007594  0.0020080448341670  0.6682121028178247
  0.1661347634023629  0.4997596661035742  0.8334712983721091
  0.3320489442954174  0.6667134598566883  0.8342213933785346
  0.4990519693131156  0.8341100096766496  0.8350550502307000
  0.6658346602308075 -0.0006927569779208  0.8340170258071024
  0.1657081699370571  0.3328421131434113  0.0001466503701485
  0.3314428521107647  0.4995736442653230 -0.0019232493919148
  0.4990266180498156  0.6666610974063587 -0.0003832988587323
  0.6656463990797047  0.8326447547777949  0.0008463158451178
  0.8323622486788463 -0.0006955626589022  0.0007589824911473
  0.1656986531353944 -0.0000839248950371  0.6672291011899276
  0.1657001692274620  0.8330891280776886  0.8339321248583829
  0.3324023643181805 -0.0000910153674875  0.8339325930120137
  0.1656293477943023  0.6662577245024305  0.0007451610054758
  0.3324260582959523  0.8328581718361218  0.0009285400117725
  0.4991162382467902 -0.0007538393917714  0.0008243045283354
  0.1656661708353299 -0.0005582281758289  0.0006053836663006
 
  0.00000000E+00  0.00000000E+00  0.00000000E+00
  0.00000000E+00  0.00000000E+00  0.00000000E+00
  0.00000000E+00  0.00000000E+00  0.00000000E+00
  0.00000000E+00  0.00000000E+00  0.00000000E+00
  0.00000000E+00  0.00000000E+00  0.00000000E+00
  0.00000000E+00  0.00000000E+00  0.00000000E+00
  0.00000000E+00  0.00000000E+00  0.00000000E+00
  0.00000000E+00  0.00000000E+00  0.00000000E+00
  0.00000000E+00  0.00000000E+00  0.00000000E+00
  0.00000000E+00  0.00000000E+00  0.00000000E+00
  0.00000000E+00  0.00000000E+00  0.00000000E+00
  0.00000000E+00  0.00000000E+00  0.00000000E+00
  0.00000000E+00  0.00000000E+00  0.00000000E+00
  0.00000000E+00  0.00000000E+00  0.00000000E+00
  0.00000000E+00  0.00000000E+00  0.00000000E+00
  0.00000000E+00  0.00000000E+00  0.00000000E+00
  0.00000000E+00  0.00000000E+00  0.00000000E+00
  0.00000000E+00  0.00000000E+00  0.00000000E+00
  0.00000000E+00  0.00000000E+00  0.00000000E+00
  0.00000000E+00  0.00000000E+00  0.00000000E+00
  0.00000000E+00  0.00000000E+00  0.00000000E+00
  0.00000000E+00  0.00000000E+00  0.00000000E+00
  0.00000000E+00  0.00000000E+00  0.00000000E+00
  0.00000000E+00  0.00000000E+00  0.00000000E+00
  0.00000000E+00  0.00000000E+00  0.00000000E+00
  0.00000000E+00  0.00000000E+00  0.00000000E+00
  0.00000000E+00  0.00000000E+00  0.00000000E+00
  0.00000000E+00  0.00000000E+00  0.00000000E+00
  0.00000000E+00  0.00000000E+00  0.00000000E+00
  0.00000000E+00  0.00000000E+00  0.00000000E+00
  0.00000000E+00  0.00000000E+00  0.00000000E+00
  0.00000000E+00  0.00000000E+00  0.00000000E+00
  0.00000000E+00  0.00000000E+00  0.00000000E+00
  0.00000000E+00  0.00000000E+00  0.00000000E+00
  0.00000000E+00  0.00000000E+00  0.00000000E+00
  0.00000000E+00  0.00000000E+00  0.00000000E+00
  0.00000000E+00  0.00000000E+00  0.00000000E+00
  0.00000000E+00  0.00000000E+00  0.00000000E+00
  0.00000000E+00  0.00000000E+00  0.00000000E+00
  0.00000000E+00  0.00000000E+00  0.00000000E+00
  0.00000000E+00  0.00000000E+00  0.00000000E+00
  0.00000000E+00  0.00000000E+00  0.00000000E+00
  0.00000000E+00  0.00000000E+00  0.00000000E+00
  0.00000000E+00  0.00000000E+00  0.00000000E+00
  0.00000000E+00  0.00000000E+00  0.00000000E+00
  0.00000000E+00  0.00000000E+00  0.00000000E+00
  0.00000000E+00  0.00000000E+00  0.00000000E+00
  0.00000000E+00  0.00000000E+00  0.00000000E+00
  0.00000000E+00  0.00000000E+00  0.00000000E+00
  0.00000000E+00  0.00000000E+00  0.00000000E+00
  0.00000000E+00  0.00000000E+00  0.00000000E+00
  0.00000000E+00  0.00000000E+00  0.00000000E+00
  0.00000000E+00  0.00000000E+00  0.00000000E+00
  0.00000000E+00  0.00000000E+00  0.00000000E+00
  0.00000000E+00  0.00000000E+00  0.00000000E+00
  0.00000000E+00  0.00000000E+00  0.00000000E+00
  0.00000000E+00  0.00000000E+00  0.00000000E+00
  0.00000000E+00  0.00000000E+00  0.00000000E+00
  0.00000000E+00  0.00000000E+00  0.00000000E+00
  0.00000000E+00  0.00000000E+00  0.00000000E+00
  0.00000000E+00  0.00000000E+00  0.00000000E+00
  0.00000000E+00  0.00000000E+00  0.00000000E+00
  0.00000000E+00  0.00000000E+00  0.00000000E+00
  0.00000000E+00  0.00000000E+00  0.00000000E+00
  0.00000000E+00  0.00000000E+00  0.00000000E+00
  0.00000000E+00  0.00000000E+00  0.00000000E+00
  0.00000000E+00  0.00000000E+00  0.00000000E+00
  0.00000000E+00  0.00000000E+00  0.00000000E+00
  0.00000000E+00  0.00000000E+00  0.00000000E+00
  0.00000000E+00  0.00000000E+00  0.00000000E+00
  0.00000000E+00  0.00000000E+00  0.00000000E+00
  0.00000000E+00  0.00000000E+00  0.00000000E+00
  0.00000000E+00  0.00000000E+00  0.00000000E+00
  0.00000000E+00  0.00000000E+00  0.00000000E+00
  0.00000000E+00  0.00000000E+00  0.00000000E+00
  0.00000000E+00  0.00000000E+00  0.00000000E+00
  0.00000000E+00  0.00000000E+00  0.00000000E+00
  0.00000000E+00  0.00000000E+00  0.00000000E+00
  0.00000000E+00  0.00000000E+00  0.00000000E+00
  0.00000000E+00  0.00000000E+00  0.00000000E+00
  0.00000000E+00  0.00000000E+00  0.00000000E+00
  0.00000000E+00  0.00000000E+00  0.00000000E+00
  0.00000000E+00  0.00000000E+00  0.00000000E+00
  0.00000000E+00  0.00000000E+00  0.00000000E+00
  0.00000000E+00  0.00000000E+00  0.00000000E+00
  0.00000000E+00  0.00000000E+00  0.00000000E+00
  0.00000000E+00  0.00000000E+00  0.00000000E+00
  0.00000000E+00  0.00000000E+00  0.00000000E+00
  0.00000000E+00  0.00000000E+00  0.00000000E+00
  0.00000000E+00  0.00000000E+00  0.00000000E+00
  0.00000000E+00  0.00000000E+00  0.00000000E+00
  0.00000000E+00  0.00000000E+00  0.00000000E+00
  0.00000000E+00  0.00000000E+00  0.00000000E+00
  0.00000000E+00  0.00000000E+00  0.00000000E+00
  0.00000000E+00  0.00000000E+00  0.00000000E+00
  0.00000000E+00  0.00000000E+00  0.00000000E+00
  0.00000000E+00  0.00000000E+00  0.00000000E+00
  0.00000000E+00  0.00000000E+00  0.00000000E+00
  0.00000000E+00  0.00000000E+00  0.00000000E+00
  0.00000000E+00  0.00000000E+00  0.00000000E+00
  0.00000000E+00  0.00000000E+00  0.00000000E+00
  0.00000000E+00  0.00000000E+00  0.00000000E+00
  0.00000000E+00  0.00000000E+00  0.00000000E+00
  0.00000000E+00  0.00000000E+00  0.00000000E+00
  0.00000000E+00  0.00000000E+00  0.00000000E+00
  0.00000000E+00  0.00000000E+00  0.00000000E+00
  0.00000000E+00  0.00000000E+00  0.00000000E+00
  0.00000000E+00  0.00000000E+00  0.00000000E+00
  0.00000000E+00  0.00000000E+00  0.00000000E+00
  0.00000000E+00  0.00000000E+00  0.00000000E+00
  0.00000000E+00  0.00000000E+00  0.00000000E+00
  0.00000000E+00  0.00000000E+00  0.00000000E+00
  0.00000000E+00  0.00000000E+00  0.00000000E+00
  0.00000000E+00  0.00000000E+00  0.00000000E+00
  0.00000000E+00  0.00000000E+00  0.00000000E+00
  0.00000000E+00  0.00000000E+00  0.00000000E+00
  0.00000000E+00  0.00000000E+00  0.00000000E+00
  0.00000000E+00  0.00000000E+00  0.00000000E+00
  0.00000000E+00  0.00000000E+00  0.00000000E+00
  0.00000000E+00  0.00000000E+00  0.00000000E+00
  0.00000000E+00  0.00000000E+00  0.00000000E+00
  0.00000000E+00  0.00000000E+00  0.00000000E+00
  0.00000000E+00  0.00000000E+00  0.00000000E+00
  0.00000000E+00  0.00000000E+00  0.00000000E+00
  0.00000000E+00  0.00000000E+00  0.00000000E+00
  0.00000000E+00  0.00000000E+00  0.00000000E+00
  0.00000000E+00  0.00000000E+00  0.00000000E+00
  0.00000000E+00  0.00000000E+00  0.00000000E+00
  0.00000000E+00  0.00000000E+00  0.00000000E+00
  0.00000000E+00  0.00000000E+00  0.00000000E+00
  0.00000000E+00  0.00000000E+00  0.00000000E+00
  0.00000000E+00  0.00000000E+00  0.00000000E+00
  0.00000000E+00  0.00000000E+00  0.00000000E+00
  0.00000000E+00  0.00000000E+00  0.00000000E+00
  0.00000000E+00  0.00000000E+00  0.00000000E+00
  0.00000000E+00  0.00000000E+00  0.00000000E+00
  0.00000000E+00  0.00000000E+00  0.00000000E+00
  0.00000000E+00  0.00000000E+00  0.00000000E+00
  0.00000000E+00  0.00000000E+00  0.00000000E+00
  0.00000000E+00  0.00000000E+00  0.00000000E+00
  0.00000000E+00  0.00000000E+00  0.00000000E+00
  0.00000000E+00  0.00000000E+00  0.00000000E+00
  0.00000000E+00  0.00000000E+00  0.00000000E+00
  0.00000000E+00  0.00000000E+00  0.00000000E+00
  0.00000000E+00  0.00000000E+00  0.00000000E+00
  0.00000000E+00  0.00000000E+00  0.00000000E+00
  0.00000000E+00  0.00000000E+00  0.00000000E+00
  0.00000000E+00  0.00000000E+00  0.00000000E+00
  0.00000000E+00  0.00000000E+00  0.00000000E+00
  0.00000000E+00  0.00000000E+00  0.00000000E+00
  0.00000000E+00  0.00000000E+00  0.00000000E+00
  0.00000000E+00  0.00000000E+00  0.00000000E+00
  0.00000000E+00  0.00000000E+00  0.00000000E+00
  0.00000000E+00  0.00000000E+00  0.00000000E+00
  0.00000000E+00  0.00000000E+00  0.00000000E+00
  0.00000000E+00  0.00000000E+00  0.00000000E+00
  0.00000000E+00  0.00000000E+00  0.00000000E+00
  0.00000000E+00  0.00000000E+00  0.00000000E+00
  0.00000000E+00  0.00000000E+00  0.00000000E+00
  0.00000000E+00  0.00000000E+00  0.00000000E+00
  0.00000000E+00  0.00000000E+00  0.00000000E+00
  0.00000000E+00  0.00000000E+00  0.00000000E+00
  0.00000000E+00  0.00000000E+00  0.00000000E+00
  0.00000000E+00  0.00000000E+00  0.00000000E+00
  0.00000000E+00  0.00000000E+00  0.00000000E+00
  0.00000000E+00  0.00000000E+00  0.00000000E+00
  0.00000000E+00  0.00000000E+00  0.00000000E+00
  0.00000000E+00  0.00000000E+00  0.00000000E+00
  0.00000000E+00  0.00000000E+00  0.00000000E+00
  0.00000000E+00  0.00000000E+00  0.00000000E+00
  0.00000000E+00  0.00000000E+00  0.00000000E+00
  0.00000000E+00  0.00000000E+00  0.00000000E+00
  0.00000000E+00  0.00000000E+00  0.00000000E+00
  0.00000000E+00  0.00000000E+00  0.00000000E+00
  0.00000000E+00  0.00000000E+00  0.00000000E+00
  0.00000000E+00  0.00000000E+00  0.00000000E+00
  0.00000000E+00  0.00000000E+00  0.00000000E+00
  0.00000000E+00  0.00000000E+00  0.00000000E+00
  0.00000000E+00  0.00000000E+00  0.00000000E+00
  0.00000000E+00  0.00000000E+00  0.00000000E+00
  0.00000000E+00  0.00000000E+00  0.00000000E+00
  0.00000000E+00  0.00000000E+00  0.00000000E+00
  0.00000000E+00  0.00000000E+00  0.00000000E+00
  0.00000000E+00  0.00000000E+00  0.00000000E+00
  0.00000000E+00  0.00000000E+00  0.00000000E+00
  0.00000000E+00  0.00000000E+00  0.00000000E+00
  0.00000000E+00  0.00000000E+00  0.00000000E+00
  0.00000000E+00  0.00000000E+00  0.00000000E+00
  0.00000000E+00  0.00000000E+00  0.00000000E+00
  0.00000000E+00  0.00000000E+00  0.00000000E+00
  0.00000000E+00  0.00000000E+00  0.00000000E+00
  0.00000000E+00  0.00000000E+00  0.00000000E+00
  0.00000000E+00  0.00000000E+00  0.00000000E+00
  0.00000000E+00  0.00000000E+00  0.00000000E+00
  0.00000000E+00  0.00000000E+00  0.00000000E+00
  0.00000000E+00  0.00000000E+00  0.00000000E+00
  0.00000000E+00  0.00000000E+00  0.00000000E+00
  0.00000000E+00  0.00000000E+00  0.00000000E+00
  0.00000000E+00  0.00000000E+00  0.00000000E+00
  0.00000000E+00  0.00000000E+00  0.00000000E+00
  0.00000000E+00  0.00000000E+00  0.00000000E+00
  0.00000000E+00  0.00000000E+00  0.00000000E+00
  0.00000000E+00  0.00000000E+00  0.00000000E+00
  0.00000000E+00  0.00000000E+00  0.00000000E+00
  0.00000000E+00  0.00000000E+00  0.00000000E+00
  0.00000000E+00  0.00000000E+00  0.00000000E+00
  0.00000000E+00  0.00000000E+00  0.00000000E+00
  0.00000000E+00  0.00000000E+00  0.00000000E+00
  0.00000000E+00  0.00000000E+00  0.00000000E+00
  0.00000000E+00  0.00000000E+00  0.00000000E+00
  0.00000000E+00  0.00000000E+00  0.00000000E+00
  0.00000000E+00  0.00000000E+00  0.00000000E+00
  0.00000000E+00  0.00000000E+00  0.00000000E+00
  0.00000000E+00  0.00000000E+00  0.00000000E+00
  0.00000000E+00  0.00000000E+00  0.00000000E+00
  0.00000000E+00  0.00000000E+00  0.00000000E+00
