pymatgen with grid density = 871 / number of atoms
0
Gamma
8 8 5
