KPOINTS from doped, with reciprocal_density = 75/Å⁻³
0
Gamma
5 5 4
