Zr4 O8
1.0
   0.0000000000000000   -5.2336489999999998    0.0000000000000000
  -5.2684600000000001    0.0000000000000000    0.0000000000000000
   0.0000000000000000   -0.9460160000000000   -5.3352539999999999
Zr O
4 8
direct
   0.7240190000000000    0.9558200000000001    0.2102560000000000 Zr
   0.7240190000000000    0.5441800000000000    0.7102560000000000 Zr
   0.2759810000000000    0.4558200000000001    0.2897440000000000 Zr
   0.2759810000000000    0.0441800000000000    0.7897440000000000 Zr
   0.0610150000000000    0.1801780000000000    0.1453870000000000 O
   0.0610150000000000    0.3198220000000000    0.6453869999999990 O
   0.5470100000000000    0.2556740000000000    0.9780639999999990 O
   0.4529900000000001    0.7556740000000000    0.5219360000000000 O
   0.5470100000000000    0.2443260000000000    0.4780640000000000 O
   0.4529900000000001    0.7443259999999990    0.0219360000000000 O
   0.9389850000000000    0.6801779999999999    0.3546130000000000 O
   0.9389850000000000    0.8198219999999991    0.8546130000000000 O
