KPOINTS from doped, with reciprocal_density = 145/Å⁻³
0
Gamma
4 4 4
