Zr12 O4
1.0
  10.6087279999999993   -2.8336890000000001    0.0000000000000000
  10.6087279999999993    2.8336890000000001    0.0000000000000000
   9.8518240000000006    0.0000000000000000    4.8493789999999999
Zr O
12 4
direct
   0.8389519999999990    0.5000000000000000    0.1610480000000000 Zr
   0.5000000000000000    0.1610480000000000    0.8389519999999990 Zr
   0.0771950000000000    0.4150720000000000    0.7568370000000000 Zr
   0.3410800000000000    0.0000000000000000    0.6589200000000001 Zr
   0.6589200000000001    0.3410800000000000    0.0000000000000000 Zr
   0.9228050000000000    0.2431630000000000    0.5849280000000000 Zr
   0.0000000000000000    0.6589200000000001    0.3410800000000000 Zr
   0.5849280000000000    0.9228050000000000    0.2431630000000000 Zr
   0.4150720000000000    0.7568370000000000    0.0771950000000000 Zr
   0.1610480000000000    0.8389519999999990    0.5000000000000000 Zr
   0.2431630000000000    0.5849280000000000    0.9228050000000000 Zr
   0.7568370000000000    0.0771950000000000    0.4150720000000000 Zr
   0.2915280000000000    0.2915280000000000    0.2915280000000000 O
   0.1251980000000000    0.1251980000000000    0.1251980000000000 O
   0.7084720000000000    0.7084720000000000    0.7084720000000000 O
   0.8748020000000000    0.8748020000000000    0.8748020000000000 O
