pymatgen with grid density = 1082 / number of atoms
0
Gamma
9 9 2
