50.0% N(Distort)=1 ~[0.5,0.5,0.5]       
   1.00000000000000     
    12.5998379999999983    0.0000000000000004    0.0000000000000004
     0.0000000000000004   12.5998379999999983   -0.0000000000000004
    -0.0000000000000004   -0.0000000000000004   12.5998379999999983
   Mg   O 
   109   107
Direct
  0.6673194618761173 -0.0012276803503125 -0.0001112709704407
  0.8337385955501205  0.1651337030668833 -0.0000643877843998
  0.8337376441318026 -0.0011343524043278  0.1662697888540697
  0.3329311657394493 -0.0012448540977235  0.9998704499607328
  0.4999921220851252  0.1645506306002347 -0.0003749232548021
  0.6671892608820245  0.3316627352794022 -0.0012676656953092
  0.8342964147296855  0.4989464056551358 -0.0003685096868457
  0.4999894263566457  0.9985101639217120  0.1656934600214205
  0.6670363880125412  0.1639587867894261  0.1651625593066491
  0.8349031879261841  0.3318267680094373  0.1650904596651013
  0.6672141523125664  0.9976000851721712  0.3328289562128271
  0.8349218328930659  0.1639648169921981  0.3329651376170926
  0.8343858137333785 -0.0014501453940800  0.5000322704767799
  0.0001402840643454 -0.0011560075782640 -0.0001104187436740
  0.1664638257505331  0.1649507445228949 -0.0000523998930529
  0.3327847667557934  0.3311280766341472 -0.0012847020722167
  0.4999326878369155  0.4989854564788940 -0.0046765757671432
  0.6677418211018576  0.6661796477485499 -0.0013107183774407
  0.8338901699184843  0.8325523371010506 -0.0000346716981770
  0.1664672594610740  0.9988442020486865  0.1660751678823602
  0.3328866258167636  0.1651098064062300  0.1662571699458389
  0.4996771447284620  0.3309494147532633  0.1613367874762127
  0.6679694377136333  0.4992590881262534  0.1613473197250755
  0.8337644102186029  0.6660911571908047  0.1662448463437799
  0.3327867333876310 -0.0024443935495698  0.3322382425597069
  0.4996822158786587  0.1601808398604096  0.3320791996294271
  0.6733411564222057  0.3255729930488270  0.3267964960505529
  0.8387065858799856  0.4992463418273457  0.3320323115976783
  0.4999415117881351 -0.0058617479614140  0.5000921933439764
  0.6679960594223011  0.1602760715163691  0.5003570330071899
  0.8386686458269276  0.3309647518627222  0.5003550945174996
  0.6677826815058659 -0.0023986931298677  0.6672357422010209
  0.8338065429776244  0.1651294773044571  0.6671410051566805
  0.8339226046993214 -0.0011214041901814  0.8335878919449585
  0.0001142738166379  0.3315216485905710 -0.0001096642914699
  0.1653395866150892  0.4987222647882346  0.9984135697666906
  0.3326807088846630  0.6662380616552592  0.9980173761180262
  0.5001408791502372  0.8335483040092850 -0.0015903986205680
  0.0000924473983068  0.1651203335875604  0.1662506544530920
  0.1659346229233659  0.3312975129365112  0.1659735880028540
  0.3268481681508984  0.4985355461983707  0.1578175900308732
  0.5003662491108429  0.6720209276141081  0.1578285775574648
  0.6675358738601451  0.8329578384309113  0.1659954749269547
  0.0001737682660129 -0.0012515427172515  0.3326493599455053
  0.1659659251378782  0.1648117827184957  0.3324371960151935
  0.3313721647131161  0.3318105361638930  0.3329468660392603
  0.4825169855741139  0.5162957390867420  0.2977979802396581
  0.6671069539321991  0.6674565848138755  0.3329552455667481
  0.8340392126379701  0.8329982386038125  0.3324464807766807
  0.1653745496363985 -0.0027191405676846  0.4998867444882481
  0.3267780290134224  0.1565978313568414  0.4996409487174503
  0.4822318110942601  0.2964176630062593  0.5174069097217179
  0.7026313301292422  0.5167423945738555  0.5175029538577567
  0.8423893250958938  0.6722251146922954  0.4996189522892543
  0.3327068328007781  0.9969040139237902  0.6673241544979401
  0.5004021329612712  0.1566593303706223  0.6731273260796709
  0.6671165274995799  0.3318110653698003  0.6684857632294471
  0.8423021062684145  0.4985581036173953  0.6732126173206240
  0.5001545682168954  0.9972904235706519  0.8346348565570698
  0.6675789502603964  0.1648560942887583  0.8340415788120563
  0.8340431783097818  0.3313254349564857  0.8340622757742585
  0.0001406073098676  0.6661048415036401 -0.0001219712184449
  0.1664808263332268  0.8324867464144674 -0.0004139475727040
  0.0003780561471523  0.4989229344257978  0.1656572919349499
  0.1659381705727333  0.6662876195556499  0.1653926066682379
  0.3326373937547379  0.8329350571305175  0.1654091859268425
  0.0012728615356662  0.3316597666923003  0.3328006131886529
  0.1649725865454150  0.4990464133554073  0.3312805878242369
  0.3296460909232020  0.6692165126729396  0.3326222355420848
  0.4998748734519452  0.8338866400152291  0.3313143766324953
  0.0004082121249902  0.1645613948011288  0.5000457175533259
  0.1649908836595678  0.3302234327295868  0.5001531617604729
  0.3227811127674737  0.4993713819323174  0.5004312980968845
  0.4996077743873331  0.6761330690474595  0.5004264961336148
  0.6687513083102290  0.8339667477068662  0.5001647855366280
  0.0001778823292215 -0.0012285611339637  0.6671453867131681
  0.1659597807844914  0.1643016165825142  0.6674238707781305
  0.3296221874576773  0.3315440279539920  0.6703579739660043
  0.4995650085000048  0.4993551727078142  0.6772031589218509
  0.6673962431955095  0.6692967866836199  0.6703960026803417
  0.8346286775608615  0.8329912058079848  0.6674181323280864
  0.1664964939184403 -0.0015608376217625  0.8335717482838461
  0.3326282647320019  0.1642959035757604  0.8340451577363553
  0.4998673287617295  0.3301988943244774  0.8349664117036498
  0.6686954341404282  0.4990394080140990  0.8350061234460974
  0.8346081465763413  0.6663413776836571  0.8340934140168109
  0.0000677322861835  0.8325293604392949  0.1660756886434245
  0.0013536458018257  0.6661745752720234  0.3322100521511998
  0.1660257199264925  0.8329243452198664  0.3323865549523838
  0.0047988644742382  0.4990297651702413  0.5000917022936557
  0.1660429864951147  0.6669284947458227  0.4999369528586851
  0.3320543804669673  0.8329196725466670  0.4999146418038675
  0.0013382501079636  0.3311569991700232  0.6672553891565516
  0.1660005502141809  0.4988421862428513  0.6680524679795364
  0.3331686110326351  0.6657676784260008  0.6668654653701074
  0.5001130449290863  0.8329263679925303  0.6679720810670984
  0.0000574284023352  0.1649488020736465  0.8335773469225619
  0.1659784432594697  0.3312378741154295  0.8340658702290111
  0.3320325307457261  0.4988008764048087  0.8340325773303591
  0.5000957032453043  0.6668898776168177  0.8340040665404996
  0.6676129760462260  0.8329672504448450  0.8340252655881703
  0.0016898347582372  0.8335924427920508  0.4998726470358185
  0.0020538780332609  0.6662877237072216  0.6673884343952630
  0.1668231858915700  0.8321529695731847  0.6671054384595272
  0.0016192056819290  0.4987399601704612  0.8347275339872501
  0.1668021202482924  0.6659754983521414  0.8332694605855232
  0.3329762008759837  0.8321366828183366  0.8332222882015193
  0.0004570720971055  0.8324974881574334  0.8335938289052347
  0.5578339551541917  0.4412763817899036  0.4427876268691591
  0.8325395199040471  0.1662980368390506  0.1674531976112887
 -0.0002130195147987  0.3322530146301092  0.1669714662530540
 -0.0001652709923269  0.1658143869991077  0.3334338541956819
  0.5003023006580810  0.1673329806005261  0.1684840866647687
  0.6652894990304623  0.3335715556576364  0.1674052470092550
  0.8315777700222720  0.4985806466761177  0.1684112017859870
 -0.0002695538765200  0.6651895174080809  0.1666968937518254
  0.6653350907777477  0.1661471569094294  0.3347057619023108
  0.8327357653800803  0.3335227423894521  0.3346636248638636
  0.0013981201581157  0.4987087531773181  0.3324639056217165
  0.8316609966745991  0.1672854182451199  0.4997143071339385
  0.0014061086872225  0.3314131769371970  0.4998508139288080
 -0.0002496312995363  0.1655755115441234  0.6663343434873649
  0.1671778152527221  0.1658218690685075  0.1669769071102980
  0.3350000945247436  0.3334428162551200  0.1674839561596662
  0.4998235947568974  0.4990316786772791  0.1540141527053892
  0.6654211816481526  0.6639037047203633  0.1674934013786630
  0.8330040577020771  0.8317839361838203  0.1669895374876273
 -0.0000837810004590 -0.0009848769527392  0.1666964092734100
  0.3349473923906809  0.1663303003159922  0.3346283746330210
  0.4996897380700262  0.3413216314641298  0.3426984703486184
  0.6577337186959098  0.4992162059887333  0.3426023323745275
  0.8325903171191520  0.6639358001968878  0.3345887746200775
 -0.0000625557262835  0.8320178638672355  0.3331489101492389
  0.4997957159921136  0.1527430808423323  0.5002075663257897
  0.6578558612643366  0.3410693205996701  0.5003453219134840
  0.8462565193135986  0.4991000255933449  0.5001874167580590
  0.0027079039745779  0.6664657237598394  0.4996824125337975
  0.6654499712738252  0.1663200142187732  0.6650783375935563
  0.8326179266522182  0.3334680080088506  0.6650780950409867
  0.0026649182307672  0.4986139372767116  0.6675713750144845
  0.8330256649282852  0.1658518664885666  0.8328655478427066
 -0.0000825100151263  0.3320183043471531  0.8331609568555295
 -0.0001014725045643  0.1655770763291983  0.0001062445689826
  0.1662629285120588  0.4986316921116925  0.1657518091447439
  0.3348406660600352  0.6640147800385411  0.1663180483201513
  0.5002160950892127  0.8325834438056229  0.1657852015990455
  0.6665358695454887 -0.0009288390830401  0.1669902628092753
  0.1676695730437713  0.3323896997485234  0.3335387327111543
  0.3332643679899840  0.4998022199325550  0.3336159820194054
  0.4990902507351017  0.6655220988779650  0.3337020671979809
  0.6664525441778144  0.8312127197726747  0.3335829375058787
  0.8330559372815091 -0.0009295958113929  0.3334455237227826
  0.1662627565812522  0.1646340043350523  0.4998199679822035
  0.3331550008353933  0.3325333672702259  0.5009510911445690
  0.6664368367239224  0.6657378415647763  0.5009581694190823
  0.8343074227833684  0.8326903925211753  0.4998141962320050
 -0.0000995320820473 -0.0009596290885436  0.4997588468396357
  0.3348512469497110  0.1652117108641884  0.6651502189184433
  0.4990772178067007  0.3325496607611964  0.6665772812831602
  0.6664007545328653  0.4998409766842770  0.6666000078661927
  0.8337240958322318  0.6640618271147289  0.6651660411692315
  0.0004377275168056  0.8319734472718113  0.6663921712738586
  0.5002224485080098  0.1646418200443197  0.8336947435665366
  0.6664591357926417  0.3324053834299635  0.8322717259981172
  0.8342371776988766  0.4986746315587431  0.8337453704872320
  0.0004087259939816  0.6652247829267001  0.8331172903745293
  0.6665463905938285  0.1658396475402056  0.0002298446429092
  0.8329900028290605  0.3322892901029494  0.0002053670340758
 -0.0002133043797249  0.4985892577048399  0.0001919839667840
  0.1670168343944388  0.8318771878836573  0.1664355154037321
  0.3337348634761277 -0.0008792626926921  0.1667167472047400
  0.1670596870954842  0.6652961288540342  0.3329833339303091
  0.3336045302766725  0.8318015912066493  0.3330035522987480
  0.5001884225134079 -0.0024953772664441  0.3325453123251279
  0.1660511454544591  0.4984172971146426  0.4995162203697300
  0.3362385436059732  0.6626490590640071  0.4991387571455447
  0.5005237501737564  0.8328262847385862  0.4995135460078975
  0.6675146602400115  0.9975325971468544  0.4998467909483778
  0.1670418416657341  0.3318742569733018  0.6664696041725727
  0.3362242037576275  0.4980349270125274  0.6637650154763001
  0.5008875269185723  0.6626383192167514  0.6637645918964572
  0.6670469183710815  0.8318597610910747  0.6664542295912042
  0.8333369634425906 -0.0008608605963369  0.6663235304300270
  0.1670103214817288  0.1653191925469250  0.8330170567383812
  0.3335890502280603  0.3318436231745295  0.8329440496498257
  0.5005156910888745  0.4983661720880584  0.8339529444626100
  0.6669963247510364  0.6653064614722187  0.8329601159460923
  0.8335586776205041  0.8319060413249948  0.8330326068358199
  0.0000590054581069 -0.0011528995672760  0.8332090067432647
  0.3337357385383015  0.1655711166243669  0.0002727192665383
  0.5001930134036292  0.3313836152750825 -0.0013720325219564
  0.6674815375847796  0.4986942064268653 -0.0013639802438250
  0.8332742668573154  0.6652174190329007  0.0002814002309021
  0.0000520604115380  0.8321430941052969 -0.0000181988572258
  0.1669354863038133 -0.0010636401460149  0.3331538146756378
  0.1674385670003641  0.8315027698173266  0.4995919791093723
  0.3324945085903553 -0.0037374786090216  0.4996850635909093
  0.1680365584477482  0.6648035850818492  0.6659453789020724
  0.3341465211798140  0.8308734844605612  0.6658920887603068
  0.5003449933316971  0.9962732562557061  0.6675119046175769
  0.1674081191227965  0.4984160358491036  0.8326659485847527
  0.3341211570912496  0.6647764003324858  0.8319993295506998
  0.5004485645041060  0.8315039198767425  0.8325999023736872
  0.6668396433167153 -0.0010222690829283  0.8331235232073769
  0.1668888094179212  0.3320034952358383  0.0001185405012100
  0.3325149659378973  0.4985509288513871  0.9974201788785458
  0.5003248514472430  0.6663833794666200 -0.0026052050626646
  0.6668092262090489  0.8320167501812743  0.0001047737400513
  0.8332764558504790 -0.0009786087360580  0.0001231643937699
  0.1669787197603596 -0.0015083832151576  0.6663775382486455
  0.1670758882091211  0.8318395787431244  0.8329916452152405
  0.3336918144486936  0.9984932555018953  0.8330664611111581
  0.1669448765792649  0.6652117736658089 -0.0003768449967490
  0.3336868912062317  0.8319339834214496 -0.0003924537861001
  0.5002682734512223 -0.0009646451639275  0.0001877085751552
  0.1668720474154206 -0.0011590427576980 -0.0000421995061974
 
  0.00000000E+00  0.00000000E+00  0.00000000E+00
  0.00000000E+00  0.00000000E+00  0.00000000E+00
  0.00000000E+00  0.00000000E+00  0.00000000E+00
  0.00000000E+00  0.00000000E+00  0.00000000E+00
  0.00000000E+00  0.00000000E+00  0.00000000E+00
  0.00000000E+00  0.00000000E+00  0.00000000E+00
  0.00000000E+00  0.00000000E+00  0.00000000E+00
  0.00000000E+00  0.00000000E+00  0.00000000E+00
  0.00000000E+00  0.00000000E+00  0.00000000E+00
  0.00000000E+00  0.00000000E+00  0.00000000E+00
  0.00000000E+00  0.00000000E+00  0.00000000E+00
  0.00000000E+00  0.00000000E+00  0.00000000E+00
  0.00000000E+00  0.00000000E+00  0.00000000E+00
  0.00000000E+00  0.00000000E+00  0.00000000E+00
  0.00000000E+00  0.00000000E+00  0.00000000E+00
  0.00000000E+00  0.00000000E+00  0.00000000E+00
  0.00000000E+00  0.00000000E+00  0.00000000E+00
  0.00000000E+00  0.00000000E+00  0.00000000E+00
  0.00000000E+00  0.00000000E+00  0.00000000E+00
  0.00000000E+00  0.00000000E+00  0.00000000E+00
  0.00000000E+00  0.00000000E+00  0.00000000E+00
  0.00000000E+00  0.00000000E+00  0.00000000E+00
  0.00000000E+00  0.00000000E+00  0.00000000E+00
  0.00000000E+00  0.00000000E+00  0.00000000E+00
  0.00000000E+00  0.00000000E+00  0.00000000E+00
  0.00000000E+00  0.00000000E+00  0.00000000E+00
  0.00000000E+00  0.00000000E+00  0.00000000E+00
  0.00000000E+00  0.00000000E+00  0.00000000E+00
  0.00000000E+00  0.00000000E+00  0.00000000E+00
  0.00000000E+00  0.00000000E+00  0.00000000E+00
  0.00000000E+00  0.00000000E+00  0.00000000E+00
  0.00000000E+00  0.00000000E+00  0.00000000E+00
  0.00000000E+00  0.00000000E+00  0.00000000E+00
  0.00000000E+00  0.00000000E+00  0.00000000E+00
  0.00000000E+00  0.00000000E+00  0.00000000E+00
  0.00000000E+00  0.00000000E+00  0.00000000E+00
  0.00000000E+00  0.00000000E+00  0.00000000E+00
  0.00000000E+00  0.00000000E+00  0.00000000E+00
  0.00000000E+00  0.00000000E+00  0.00000000E+00
  0.00000000E+00  0.00000000E+00  0.00000000E+00
  0.00000000E+00  0.00000000E+00  0.00000000E+00
  0.00000000E+00  0.00000000E+00  0.00000000E+00
  0.00000000E+00  0.00000000E+00  0.00000000E+00
  0.00000000E+00  0.00000000E+00  0.00000000E+00
  0.00000000E+00  0.00000000E+00  0.00000000E+00
  0.00000000E+00  0.00000000E+00  0.00000000E+00
  0.00000000E+00  0.00000000E+00  0.00000000E+00
  0.00000000E+00  0.00000000E+00  0.00000000E+00
  0.00000000E+00  0.00000000E+00  0.00000000E+00
  0.00000000E+00  0.00000000E+00  0.00000000E+00
  0.00000000E+00  0.00000000E+00  0.00000000E+00
  0.00000000E+00  0.00000000E+00  0.00000000E+00
  0.00000000E+00  0.00000000E+00  0.00000000E+00
  0.00000000E+00  0.00000000E+00  0.00000000E+00
  0.00000000E+00  0.00000000E+00  0.00000000E+00
  0.00000000E+00  0.00000000E+00  0.00000000E+00
  0.00000000E+00  0.00000000E+00  0.00000000E+00
  0.00000000E+00  0.00000000E+00  0.00000000E+00
  0.00000000E+00  0.00000000E+00  0.00000000E+00
  0.00000000E+00  0.00000000E+00  0.00000000E+00
  0.00000000E+00  0.00000000E+00  0.00000000E+00
  0.00000000E+00  0.00000000E+00  0.00000000E+00
  0.00000000E+00  0.00000000E+00  0.00000000E+00
  0.00000000E+00  0.00000000E+00  0.00000000E+00
  0.00000000E+00  0.00000000E+00  0.00000000E+00
  0.00000000E+00  0.00000000E+00  0.00000000E+00
  0.00000000E+00  0.00000000E+00  0.00000000E+00
  0.00000000E+00  0.00000000E+00  0.00000000E+00
  0.00000000E+00  0.00000000E+00  0.00000000E+00
  0.00000000E+00  0.00000000E+00  0.00000000E+00
  0.00000000E+00  0.00000000E+00  0.00000000E+00
  0.00000000E+00  0.00000000E+00  0.00000000E+00
  0.00000000E+00  0.00000000E+00  0.00000000E+00
  0.00000000E+00  0.00000000E+00  0.00000000E+00
  0.00000000E+00  0.00000000E+00  0.00000000E+00
  0.00000000E+00  0.00000000E+00  0.00000000E+00
  0.00000000E+00  0.00000000E+00  0.00000000E+00
  0.00000000E+00  0.00000000E+00  0.00000000E+00
  0.00000000E+00  0.00000000E+00  0.00000000E+00
  0.00000000E+00  0.00000000E+00  0.00000000E+00
  0.00000000E+00  0.00000000E+00  0.00000000E+00
  0.00000000E+00  0.00000000E+00  0.00000000E+00
  0.00000000E+00  0.00000000E+00  0.00000000E+00
  0.00000000E+00  0.00000000E+00  0.00000000E+00
  0.00000000E+00  0.00000000E+00  0.00000000E+00
  0.00000000E+00  0.00000000E+00  0.00000000E+00
  0.00000000E+00  0.00000000E+00  0.00000000E+00
  0.00000000E+00  0.00000000E+00  0.00000000E+00
  0.00000000E+00  0.00000000E+00  0.00000000E+00
  0.00000000E+00  0.00000000E+00  0.00000000E+00
  0.00000000E+00  0.00000000E+00  0.00000000E+00
  0.00000000E+00  0.00000000E+00  0.00000000E+00
  0.00000000E+00  0.00000000E+00  0.00000000E+00
  0.00000000E+00  0.00000000E+00  0.00000000E+00
  0.00000000E+00  0.00000000E+00  0.00000000E+00
  0.00000000E+00  0.00000000E+00  0.00000000E+00
  0.00000000E+00  0.00000000E+00  0.00000000E+00
  0.00000000E+00  0.00000000E+00  0.00000000E+00
  0.00000000E+00  0.00000000E+00  0.00000000E+00
  0.00000000E+00  0.00000000E+00  0.00000000E+00
  0.00000000E+00  0.00000000E+00  0.00000000E+00
  0.00000000E+00  0.00000000E+00  0.00000000E+00
  0.00000000E+00  0.00000000E+00  0.00000000E+00
  0.00000000E+00  0.00000000E+00  0.00000000E+00
  0.00000000E+00  0.00000000E+00  0.00000000E+00
  0.00000000E+00  0.00000000E+00  0.00000000E+00
  0.00000000E+00  0.00000000E+00  0.00000000E+00
  0.00000000E+00  0.00000000E+00  0.00000000E+00
  0.00000000E+00  0.00000000E+00  0.00000000E+00
  0.00000000E+00  0.00000000E+00  0.00000000E+00
  0.00000000E+00  0.00000000E+00  0.00000000E+00
  0.00000000E+00  0.00000000E+00  0.00000000E+00
  0.00000000E+00  0.00000000E+00  0.00000000E+00
  0.00000000E+00  0.00000000E+00  0.00000000E+00
  0.00000000E+00  0.00000000E+00  0.00000000E+00
  0.00000000E+00  0.00000000E+00  0.00000000E+00
  0.00000000E+00  0.00000000E+00  0.00000000E+00
  0.00000000E+00  0.00000000E+00  0.00000000E+00
  0.00000000E+00  0.00000000E+00  0.00000000E+00
  0.00000000E+00  0.00000000E+00  0.00000000E+00
  0.00000000E+00  0.00000000E+00  0.00000000E+00
  0.00000000E+00  0.00000000E+00  0.00000000E+00
  0.00000000E+00  0.00000000E+00  0.00000000E+00
  0.00000000E+00  0.00000000E+00  0.00000000E+00
  0.00000000E+00  0.00000000E+00  0.00000000E+00
  0.00000000E+00  0.00000000E+00  0.00000000E+00
  0.00000000E+00  0.00000000E+00  0.00000000E+00
  0.00000000E+00  0.00000000E+00  0.00000000E+00
  0.00000000E+00  0.00000000E+00  0.00000000E+00
  0.00000000E+00  0.00000000E+00  0.00000000E+00
  0.00000000E+00  0.00000000E+00  0.00000000E+00
  0.00000000E+00  0.00000000E+00  0.00000000E+00
  0.00000000E+00  0.00000000E+00  0.00000000E+00
  0.00000000E+00  0.00000000E+00  0.00000000E+00
  0.00000000E+00  0.00000000E+00  0.00000000E+00
  0.00000000E+00  0.00000000E+00  0.00000000E+00
  0.00000000E+00  0.00000000E+00  0.00000000E+00
  0.00000000E+00  0.00000000E+00  0.00000000E+00
  0.00000000E+00  0.00000000E+00  0.00000000E+00
  0.00000000E+00  0.00000000E+00  0.00000000E+00
  0.00000000E+00  0.00000000E+00  0.00000000E+00
  0.00000000E+00  0.00000000E+00  0.00000000E+00
  0.00000000E+00  0.00000000E+00  0.00000000E+00
  0.00000000E+00  0.00000000E+00  0.00000000E+00
  0.00000000E+00  0.00000000E+00  0.00000000E+00
  0.00000000E+00  0.00000000E+00  0.00000000E+00
  0.00000000E+00  0.00000000E+00  0.00000000E+00
  0.00000000E+00  0.00000000E+00  0.00000000E+00
  0.00000000E+00  0.00000000E+00  0.00000000E+00
  0.00000000E+00  0.00000000E+00  0.00000000E+00
  0.00000000E+00  0.00000000E+00  0.00000000E+00
  0.00000000E+00  0.00000000E+00  0.00000000E+00
  0.00000000E+00  0.00000000E+00  0.00000000E+00
  0.00000000E+00  0.00000000E+00  0.00000000E+00
  0.00000000E+00  0.00000000E+00  0.00000000E+00
  0.00000000E+00  0.00000000E+00  0.00000000E+00
  0.00000000E+00  0.00000000E+00  0.00000000E+00
  0.00000000E+00  0.00000000E+00  0.00000000E+00
  0.00000000E+00  0.00000000E+00  0.00000000E+00
  0.00000000E+00  0.00000000E+00  0.00000000E+00
  0.00000000E+00  0.00000000E+00  0.00000000E+00
  0.00000000E+00  0.00000000E+00  0.00000000E+00
  0.00000000E+00  0.00000000E+00  0.00000000E+00
  0.00000000E+00  0.00000000E+00  0.00000000E+00
  0.00000000E+00  0.00000000E+00  0.00000000E+00
  0.00000000E+00  0.00000000E+00  0.00000000E+00
  0.00000000E+00  0.00000000E+00  0.00000000E+00
  0.00000000E+00  0.00000000E+00  0.00000000E+00
  0.00000000E+00  0.00000000E+00  0.00000000E+00
  0.00000000E+00  0.00000000E+00  0.00000000E+00
  0.00000000E+00  0.00000000E+00  0.00000000E+00
  0.00000000E+00  0.00000000E+00  0.00000000E+00
  0.00000000E+00  0.00000000E+00  0.00000000E+00
  0.00000000E+00  0.00000000E+00  0.00000000E+00
  0.00000000E+00  0.00000000E+00  0.00000000E+00
  0.00000000E+00  0.00000000E+00  0.00000000E+00
  0.00000000E+00  0.00000000E+00  0.00000000E+00
  0.00000000E+00  0.00000000E+00  0.00000000E+00
  0.00000000E+00  0.00000000E+00  0.00000000E+00
  0.00000000E+00  0.00000000E+00  0.00000000E+00
  0.00000000E+00  0.00000000E+00  0.00000000E+00
  0.00000000E+00  0.00000000E+00  0.00000000E+00
  0.00000000E+00  0.00000000E+00  0.00000000E+00
  0.00000000E+00  0.00000000E+00  0.00000000E+00
  0.00000000E+00  0.00000000E+00  0.00000000E+00
  0.00000000E+00  0.00000000E+00  0.00000000E+00
  0.00000000E+00  0.00000000E+00  0.00000000E+00
  0.00000000E+00  0.00000000E+00  0.00000000E+00
  0.00000000E+00  0.00000000E+00  0.00000000E+00
  0.00000000E+00  0.00000000E+00  0.00000000E+00
  0.00000000E+00  0.00000000E+00  0.00000000E+00
  0.00000000E+00  0.00000000E+00  0.00000000E+00
  0.00000000E+00  0.00000000E+00  0.00000000E+00
  0.00000000E+00  0.00000000E+00  0.00000000E+00
  0.00000000E+00  0.00000000E+00  0.00000000E+00
  0.00000000E+00  0.00000000E+00  0.00000000E+00
  0.00000000E+00  0.00000000E+00  0.00000000E+00
  0.00000000E+00  0.00000000E+00  0.00000000E+00
  0.00000000E+00  0.00000000E+00  0.00000000E+00
  0.00000000E+00  0.00000000E+00  0.00000000E+00
  0.00000000E+00  0.00000000E+00  0.00000000E+00
  0.00000000E+00  0.00000000E+00  0.00000000E+00
  0.00000000E+00  0.00000000E+00  0.00000000E+00
  0.00000000E+00  0.00000000E+00  0.00000000E+00
  0.00000000E+00  0.00000000E+00  0.00000000E+00
  0.00000000E+00  0.00000000E+00  0.00000000E+00
  0.00000000E+00  0.00000000E+00  0.00000000E+00
  0.00000000E+00  0.00000000E+00  0.00000000E+00
  0.00000000E+00  0.00000000E+00  0.00000000E+00
  0.00000000E+00  0.00000000E+00  0.00000000E+00
  0.00000000E+00  0.00000000E+00  0.00000000E+00
  0.00000000E+00  0.00000000E+00  0.00000000E+00
  0.00000000E+00  0.00000000E+00  0.00000000E+00
  0.00000000E+00  0.00000000E+00  0.00000000E+00
  0.00000000E+00  0.00000000E+00  0.00000000E+00
  0.00000000E+00  0.00000000E+00  0.00000000E+00
