KPOINTS from doped, with reciprocal_density = 250/Å⁻³
0
Gamma
5 5 5
