Unperturbed N(Distort)=2 ~[0.5,0.5,0.5] 
   1.00000000000000     
    12.5998379999999983    0.0000000000000004    0.0000000000000004
     0.0000000000000004   12.5998379999999983   -0.0000000000000004
    -0.0000000000000004   -0.0000000000000004   12.5998379999999983
   Mg   O 
   109   107
Direct
  0.6671712699740399  0.0000000026885361 -0.0000000280986197
  0.8335589126134583  0.1664410844007548  0.0000000020537916
  0.8335589180685311  0.0000000021434675  0.1664410464542596
  0.3328287267069586 -0.0000000007655185  0.0000000281921431
  0.4999999955970959  0.1655847956604910  0.0000000185094054
  0.6672329102258298  0.3327670844358292  0.0000000011262959
  0.8344152020872800  0.5000000030595463 -0.0000000183574812
  0.4999999981194445 -0.0000000009378970  0.1655848134598492
  0.6672848045059254  0.1663426364706881  0.1663426324279063
  0.8336573609002847  0.3327151926681362  0.1663426319619092
  0.6672329072922986  0.0000000054614723  0.3327670591844800
  0.8336573552722345  0.1663426485927728  0.3327151872465967
  0.8344151967244215  0.0000000025146877  0.4999999753770613
 -0.0000000011720623 -0.0000000002284342  0.0000000003147397
  0.1664410728275654  0.1664410736049682  0.0000000581256637
  0.3327670780937055  0.3327670722457304  0.0000000686669604
  0.4999999961467272  0.4999999999318763 -0.0000000019981812
  0.6672329178643953  0.6672329280533112 -0.0000000700597634
  0.8335589232964382  0.8335589251524571 -0.0000000580270510
  0.1664410812141842  0.0000000004065091  0.1664411129611683
  0.3327151804160251  0.1663426354879148  0.1663427208651212
  0.4999999883227255  0.3303645789315288  0.1632753808670668
  0.6696354278654919  0.5000000002213902  0.1632753254640586
  0.8336573738505436  0.6672848103044601  0.1663425466939091
  0.3327670906868578  0.0000000004007925  0.3327671316890076
  0.4999999879619287  0.1632753607910136  0.3303646237046711
  0.6668680255944018  0.3331319707790339  0.3331319509672538
  0.8367246601455089  0.4999999965033722  0.3303645123432894
  0.5000000046552118  0.0000000004021217  0.4999999992944715
  0.6696354203983097  0.1632753596602987  0.4999999932098032
  0.8367246517018292  0.3303645758326208  0.5000000042987441
  0.6672329122258164  0.0000000003403088  0.6672328709601707
  0.8336573574104449  0.1663426401754759  0.6672848147881809
  0.8335589174888111  0.0000000002175537  0.8335588896376466
 -0.0000000041973467  0.3328287213891002  0.0000000341729250
  0.1655847931536513  0.4999999957071979  0.0000000174592974
  0.3327670833844497  0.6672329163925531 -0.0000000025374127
  0.4999999983211584  0.8344152060097366 -0.0000000198399405
 -0.0000000030001983  0.1664410846093073  0.1664411158353183
  0.1663426307539668  0.3327151793006590  0.1663427188275944
  0.3303645613185101  0.4999999906941317  0.1632753718723660
  0.4999999939221301  0.6696354286515073  0.1632753241764950
  0.6672848037837977  0.8336573710555912  0.1663425523380969
  0.0000000013412236  0.0000000071751456  0.3328287210580152
  0.1663426368012134  0.1663426375368326  0.3327152698338571
  0.3331319605241357  0.3331319709836205  0.3331321116641213
  0.4999999866137876  0.5000000122496481  0.3085107922707672
  0.6668680476321476  0.6668680381744240  0.3331317999835526
  0.8336573620456548  0.8336573617869030  0.3327151079170457
  0.1655848079346209 -0.0000000047768851  0.5000000261961094
  0.3303645788411250  0.1632753557589490  0.5000001028592916
  0.4999999974917209  0.3085107829346392  0.5000001142190291
  0.6914892450628428  0.4999999952569417  0.4999998918168375
  0.8367246536833860  0.6696354282190290  0.4999998985406353
  0.3327670958144985 -0.0000000046710596  0.6672329388655961
  0.5000000043655499  0.1632753516187565  0.6696354788719866
  0.6668680508310835  0.3331319741391929  0.6668680538806244
  0.8367246541606771  0.5000000105812786  0.6696353920203894
  0.5000000011041549  0.0000000022321557  0.8344151853721419
  0.6672848065399388  0.1663426388520070  0.8336573685134240
  0.8336573697087100  0.3327151896463159  0.8336573741342009
  0.0000000019375666  0.6671712772493202 -0.0000000340610748
  0.1664410836282104  0.8335589179488716 -0.0000000016522849
  0.0000000005072430  0.4999999995680190  0.1655848028897725
  0.1663426286672807  0.6672848103518787  0.1663426252825178
  0.3327151882680111  0.8336573627295024  0.1663426321833038
  0.0000000013414922  0.3327670874377207  0.3327671329066992
  0.1632753580829489  0.4999999891040970  0.3303646124203409
  0.3331319439643660  0.6668680266861891  0.3331319467914962
  0.4999999954339645  0.8367246490740285  0.3303645208207954
 -0.0000000013821621  0.1655847927386496  0.5000000258484952
  0.1632753601877409  0.3303645731405862  0.5000001023108475
  0.3085108176433541  0.5000000070624879  0.5000001099724311
  0.4999999750341960  0.6914892126562212  0.4999998870539853
  0.6696354227032340  0.8367246422844179  0.4999998971819005
 -0.0000000000229412 -0.0000000081110578  0.6671712801119761
  0.1663426383397775  0.1663426363784919  0.6672848921613266
  0.3331319490575295  0.3331319626643953  0.6668681996983699
  0.4999999797857832  0.4999999884435763  0.6914892030666123
  0.6668680364665331  0.6668680284341244  0.6668678881794495
  0.8336573635768586  0.8336573601012002  0.6672847321991373
  0.1664410800850259 -0.0000000012982749  0.8335589518772333
  0.3327151930107717  0.1663426302368974  0.8336574461511017
  0.5000000021770450  0.3303645729552407  0.8367246739194288
  0.6696354311971384  0.5000000089289448  0.8367246228738554
  0.8336573673189791  0.6672848192019055  0.8336572822099908
  0.0000000000544095  0.8335589149609500  0.1664410501421718
  0.0000000071773961  0.6672329082349510  0.3327670665196533
  0.1663426413266017  0.8336573596824733  0.3327151888895170
  0.0000000131957705  0.4999999990183591  0.5000000002694848
  0.1632753602181476  0.6696354210062649  0.4999999972762984
  0.3303645765230753  0.8367246406732081  0.5000000079796254
 -0.0000000005675873  0.3327670906643200  0.6672329342836308
  0.1632753506566091  0.5000000028123838  0.6696354831066955
  0.3331319683342837  0.6668680281890564  0.6668680494223793
  0.5000000112565817  0.8367246389251819  0.6696353760519884
 -0.0000000012160681  0.1664410836456629  0.8335589500772276
  0.1663426248038278  0.3327151892920672  0.8336574515863591
  0.3303645638233431  0.4999999994311370  0.8367246751982135
  0.5000000068987132  0.6696354215308433  0.8367246172959817
  0.6672848169636850  0.8336573661582622  0.8336572798387696
  0.0000000062854320  0.8344152041163558  0.4999999763868156
  0.0000000046692483  0.6672329099555615  0.6672328669964075
  0.1663426426827402  0.8336573513169168  0.6672848126431391
  0.0000000009597758  0.4999999985529355  0.8344151963663884
  0.1663426364940928  0.6672848071452617  0.8336573672494627
  0.3327151902772128  0.8336573647663165  0.8336573675952925
  0.0000000011003926  0.8335589144169757  0.8335588848716380
  0.5000000752030309  0.4999999952486780  0.4999999941775722
  0.8330865201838323  0.1669134911060254  0.1669134700221052
 -0.0000000059850911  0.3333816881903323  0.1667791207423618
  0.0000000072346266  0.1667790741757424  0.3333816928636156
  0.4999999786703765  0.1665194105457042  0.1665193613652386
  0.6660008552961602  0.3339991050448300  0.1671629198182341
  0.8334806616159179  0.5000000029521225  0.1665192699197382
 -0.0000000084351303  0.6666183182574730  0.1667790493651714
  0.6660008771367563  0.1671629373030372  0.3339990985080330
  0.8328370774757297  0.3339991316150833  0.3339991348466707
 -0.0000000005118897  0.4999999989054458  0.3323312594509519
  0.8334806987583721  0.1665193309838163  0.5000000096740296
 -0.0000000025283760  0.3323312618690112  0.4999999534349215
 -0.0000000037584391  0.1667791156243306  0.6666183722465412
  0.1669134632069963  0.1669134690760249  0.1669135702199422
  0.3339991096705673  0.3339991196155774  0.1671630965282362
  0.4999999639707139  0.4999999696268150  0.1590053763764031
  0.6660008939751536  0.6660008916735697  0.1671627385445387
  0.8330865268021705  0.8330865235796920  0.1669133684575037
 -0.0000000054421920 -0.0000000044615895  0.1667244230486714
  0.3339991352391321  0.1671629606836371  0.3339992917121666
  0.4999999930507130  0.3351617623356286  0.3351618646732711
  0.6648383454647173  0.4999999878083156  0.3351614814473056
  0.8328370959107121  0.6660008721987949  0.3339989600452760
  0.0000000044610971  0.8332208839212646  0.3333816285702906
  0.4999999967716088  0.1590053337132170  0.5000000154613095
  0.6648383280555893  0.3351617081588448  0.4999999889902255
  0.8409947142321812  0.5000000008995260  0.4999999889277696
  0.0000000077846845  0.6676687403056836  0.5000000455927006
  0.6660008638017653  0.1671629706438367  0.6660008489925165
  0.8328370901994148  0.3339991331690338  0.6660008995050946
  0.0000000036404283  0.5000000000963436  0.6676687393454510
  0.8330865126209489  0.1669134753715277  0.8330865367261251
  0.0000000062108357  0.3333816800001271  0.8332209512332890
 -0.0000000039144340  0.1667244335963424  0.0000000279050834
  0.1665193689551515  0.4999999890090983  0.1665193426189162
  0.3339990930401077  0.6660008550151570  0.1671629228261814
  0.4999999863066897  0.8334806506377554  0.1665192642628441
  0.6666182871253387 -0.0000000100456052  0.1667790442670525
  0.1671629194487869  0.3339991232179904  0.3339992783237212
  0.3351617018595296  0.4999999875855674  0.3351618366359191
  0.4999999886326156  0.6648383254667150  0.3351614724728132
  0.6660008779672890  0.8328370687267513  0.3339989568925067
  0.8332208997692953  0.0000000294589319  0.3333816312109461
  0.1665193175891446  0.1665193351314466  0.5000000639830340
  0.3351616940338487  0.3351617164836576  0.5000003162857223
  0.6648383005203582  0.6648382681049656  0.4999996821055436
  0.8334806878491603  0.8334806680403787  0.4999999345993051
 -0.0000000002784332  0.0000000013136448  0.5000000005982236
  0.3339991232128950  0.1671629273819706  0.6660010442165627
  0.5000000076451502  0.3351616747866364  0.6648385244596270
  0.6648382902854438  0.5000000131630900  0.6648381469593210
  0.8328370790083136  0.6660008732971482  0.6660007181362044
 -0.0000000098314158  0.8332209261052176  0.6666183083573194
  0.5000000142191974  0.1665193478210268  0.8334807366288796
  0.6660009059175355  0.3339991477776812  0.8328370758848187
  0.8334806275428526  0.5000000117908807  0.8334806579324138
  0.0000000028585642  0.6666183107061846  0.8332208798158522
  0.6666183221821185  0.1667790985169212 -0.0000000194734908
  0.8332209125144936  0.3333816714955098  0.0000000393523666
 -0.0000000032183973  0.4999999983669002  0.0000000008585483
  0.1669134852309814  0.8330865254150552  0.1669134635952949
  0.3333817036040208 -0.0000000002725194  0.1667791260165088
  0.1671629091143302  0.6660008697713553  0.3339990970988302
  0.3339991371799441  0.8328370332222049  0.3339991494882132
  0.5000000038048282  0.0000000009737356  0.3323312520512027
  0.1590053190917292  0.5000000007464391  0.5000000085917301
  0.3351616614298045  0.6648383130494725  0.5000000110072668
  0.5000000077092814  0.8409946657833253  0.4999999840372016
  0.6676687613472785  0.0000000078151685  0.5000000452914656
  0.1671629033329417  0.3339991243374079  0.6660010411377151
  0.3351616453940377  0.5000000112741498  0.6648385336342941
  0.5000000034262557  0.6648382406389841  0.6648381370182881
  0.6660008657205702  0.8328370352965214  0.6660007061614134
  0.8332209137016405 -0.0000000281185828  0.6666182902156521
  0.1669134679936841  0.1669134741500533  0.8330866316027498
  0.3339991032730866  0.3339991055539352  0.8328372612006534
  0.5000000324867495  0.5000000290277700  0.8409946203310324
  0.6660008876325204  0.6660008787862238  0.8328369022033228
  0.8330865319447303  0.8330865280577161  0.8330864314780431
  0.0000000088229140  0.0000000093708064  0.8332755791035830
  0.3333816791021633  0.1667790822354282  0.0000000943482355
  0.5000000033449399  0.3323312349945526 -0.0000000315102654
  0.6676687812234958  0.4999999883259071  0.0000000366554865
  0.8332209194262243  0.6666183445560291 -0.0000001164722756
  0.0000000040346155  0.8332755672916080 -0.0000000263186376
  0.1667790874878720  0.0000000293489312  0.3333817110886769
  0.1665192992760472  0.8334806715037639  0.4999999897253012
  0.3323312350133091 -0.0000000093830954  0.4999999541642090
  0.1671629208097920  0.6660008722342829  0.6660008665770393
  0.3339991237603057  0.8328370669265821  0.6660009027880750
  0.4999999986869472 -0.0000000022916801  0.6676687488908332
  0.1665193363693277  0.4999999981589640  0.8334807293301386
  0.3339991421115485  0.6660008980127915  0.8328370818918018
  0.5000000223284990  0.8334805895292157  0.8334806393869263
  0.6666182915970545 -0.0000000002145903  0.8332208723704131
  0.1667790763688254  0.3333816538863293  0.0000001173783791
  0.3323312169920722  0.5000000134432752 -0.0000000355554449
  0.4999999957990322  0.6676687665583509  0.0000000316314609
  0.6666183184407027  0.8332209128351028 -0.0000000926130977
  0.8332755885817900  0.0000000087299468 -0.0000000296073382
  0.1667790997362542 -0.0000000292873831  0.6666183704652765
  0.1669134769602810  0.8330865112625431  0.8330865333797435
  0.3333817081246382  0.0000000097395603  0.8332209581413100
  0.1667790867884389  0.6666183309009548 -0.0000000370649703
  0.3333816743907360  0.8332209050274573  0.0000000205468887
  0.4999999979203703  0.0000000000195221  0.0000000009135745
  0.1667244099121918 -0.0000000099908679  0.0000000321825518
 
  0.00000000E+00  0.00000000E+00  0.00000000E+00
  0.00000000E+00  0.00000000E+00  0.00000000E+00
  0.00000000E+00  0.00000000E+00  0.00000000E+00
  0.00000000E+00  0.00000000E+00  0.00000000E+00
  0.00000000E+00  0.00000000E+00  0.00000000E+00
  0.00000000E+00  0.00000000E+00  0.00000000E+00
  0.00000000E+00  0.00000000E+00  0.00000000E+00
  0.00000000E+00  0.00000000E+00  0.00000000E+00
  0.00000000E+00  0.00000000E+00  0.00000000E+00
  0.00000000E+00  0.00000000E+00  0.00000000E+00
  0.00000000E+00  0.00000000E+00  0.00000000E+00
  0.00000000E+00  0.00000000E+00  0.00000000E+00
  0.00000000E+00  0.00000000E+00  0.00000000E+00
  0.00000000E+00  0.00000000E+00  0.00000000E+00
  0.00000000E+00  0.00000000E+00  0.00000000E+00
  0.00000000E+00  0.00000000E+00  0.00000000E+00
  0.00000000E+00  0.00000000E+00  0.00000000E+00
  0.00000000E+00  0.00000000E+00  0.00000000E+00
  0.00000000E+00  0.00000000E+00  0.00000000E+00
  0.00000000E+00  0.00000000E+00  0.00000000E+00
  0.00000000E+00  0.00000000E+00  0.00000000E+00
  0.00000000E+00  0.00000000E+00  0.00000000E+00
  0.00000000E+00  0.00000000E+00  0.00000000E+00
  0.00000000E+00  0.00000000E+00  0.00000000E+00
  0.00000000E+00  0.00000000E+00  0.00000000E+00
  0.00000000E+00  0.00000000E+00  0.00000000E+00
  0.00000000E+00  0.00000000E+00  0.00000000E+00
  0.00000000E+00  0.00000000E+00  0.00000000E+00
  0.00000000E+00  0.00000000E+00  0.00000000E+00
  0.00000000E+00  0.00000000E+00  0.00000000E+00
  0.00000000E+00  0.00000000E+00  0.00000000E+00
  0.00000000E+00  0.00000000E+00  0.00000000E+00
  0.00000000E+00  0.00000000E+00  0.00000000E+00
  0.00000000E+00  0.00000000E+00  0.00000000E+00
  0.00000000E+00  0.00000000E+00  0.00000000E+00
  0.00000000E+00  0.00000000E+00  0.00000000E+00
  0.00000000E+00  0.00000000E+00  0.00000000E+00
  0.00000000E+00  0.00000000E+00  0.00000000E+00
  0.00000000E+00  0.00000000E+00  0.00000000E+00
  0.00000000E+00  0.00000000E+00  0.00000000E+00
  0.00000000E+00  0.00000000E+00  0.00000000E+00
  0.00000000E+00  0.00000000E+00  0.00000000E+00
  0.00000000E+00  0.00000000E+00  0.00000000E+00
  0.00000000E+00  0.00000000E+00  0.00000000E+00
  0.00000000E+00  0.00000000E+00  0.00000000E+00
  0.00000000E+00  0.00000000E+00  0.00000000E+00
  0.00000000E+00  0.00000000E+00  0.00000000E+00
  0.00000000E+00  0.00000000E+00  0.00000000E+00
  0.00000000E+00  0.00000000E+00  0.00000000E+00
  0.00000000E+00  0.00000000E+00  0.00000000E+00
  0.00000000E+00  0.00000000E+00  0.00000000E+00
  0.00000000E+00  0.00000000E+00  0.00000000E+00
  0.00000000E+00  0.00000000E+00  0.00000000E+00
  0.00000000E+00  0.00000000E+00  0.00000000E+00
  0.00000000E+00  0.00000000E+00  0.00000000E+00
  0.00000000E+00  0.00000000E+00  0.00000000E+00
  0.00000000E+00  0.00000000E+00  0.00000000E+00
  0.00000000E+00  0.00000000E+00  0.00000000E+00
  0.00000000E+00  0.00000000E+00  0.00000000E+00
  0.00000000E+00  0.00000000E+00  0.00000000E+00
  0.00000000E+00  0.00000000E+00  0.00000000E+00
  0.00000000E+00  0.00000000E+00  0.00000000E+00
  0.00000000E+00  0.00000000E+00  0.00000000E+00
  0.00000000E+00  0.00000000E+00  0.00000000E+00
  0.00000000E+00  0.00000000E+00  0.00000000E+00
  0.00000000E+00  0.00000000E+00  0.00000000E+00
  0.00000000E+00  0.00000000E+00  0.00000000E+00
  0.00000000E+00  0.00000000E+00  0.00000000E+00
  0.00000000E+00  0.00000000E+00  0.00000000E+00
  0.00000000E+00  0.00000000E+00  0.00000000E+00
  0.00000000E+00  0.00000000E+00  0.00000000E+00
  0.00000000E+00  0.00000000E+00  0.00000000E+00
  0.00000000E+00  0.00000000E+00  0.00000000E+00
  0.00000000E+00  0.00000000E+00  0.00000000E+00
  0.00000000E+00  0.00000000E+00  0.00000000E+00
  0.00000000E+00  0.00000000E+00  0.00000000E+00
  0.00000000E+00  0.00000000E+00  0.00000000E+00
  0.00000000E+00  0.00000000E+00  0.00000000E+00
  0.00000000E+00  0.00000000E+00  0.00000000E+00
  0.00000000E+00  0.00000000E+00  0.00000000E+00
  0.00000000E+00  0.00000000E+00  0.00000000E+00
  0.00000000E+00  0.00000000E+00  0.00000000E+00
  0.00000000E+00  0.00000000E+00  0.00000000E+00
  0.00000000E+00  0.00000000E+00  0.00000000E+00
  0.00000000E+00  0.00000000E+00  0.00000000E+00
  0.00000000E+00  0.00000000E+00  0.00000000E+00
  0.00000000E+00  0.00000000E+00  0.00000000E+00
  0.00000000E+00  0.00000000E+00  0.00000000E+00
  0.00000000E+00  0.00000000E+00  0.00000000E+00
  0.00000000E+00  0.00000000E+00  0.00000000E+00
  0.00000000E+00  0.00000000E+00  0.00000000E+00
  0.00000000E+00  0.00000000E+00  0.00000000E+00
  0.00000000E+00  0.00000000E+00  0.00000000E+00
  0.00000000E+00  0.00000000E+00  0.00000000E+00
  0.00000000E+00  0.00000000E+00  0.00000000E+00
  0.00000000E+00  0.00000000E+00  0.00000000E+00
  0.00000000E+00  0.00000000E+00  0.00000000E+00
  0.00000000E+00  0.00000000E+00  0.00000000E+00
  0.00000000E+00  0.00000000E+00  0.00000000E+00
  0.00000000E+00  0.00000000E+00  0.00000000E+00
  0.00000000E+00  0.00000000E+00  0.00000000E+00
  0.00000000E+00  0.00000000E+00  0.00000000E+00
  0.00000000E+00  0.00000000E+00  0.00000000E+00
  0.00000000E+00  0.00000000E+00  0.00000000E+00
  0.00000000E+00  0.00000000E+00  0.00000000E+00
  0.00000000E+00  0.00000000E+00  0.00000000E+00
  0.00000000E+00  0.00000000E+00  0.00000000E+00
  0.00000000E+00  0.00000000E+00  0.00000000E+00
  0.00000000E+00  0.00000000E+00  0.00000000E+00
  0.00000000E+00  0.00000000E+00  0.00000000E+00
  0.00000000E+00  0.00000000E+00  0.00000000E+00
  0.00000000E+00  0.00000000E+00  0.00000000E+00
  0.00000000E+00  0.00000000E+00  0.00000000E+00
  0.00000000E+00  0.00000000E+00  0.00000000E+00
  0.00000000E+00  0.00000000E+00  0.00000000E+00
  0.00000000E+00  0.00000000E+00  0.00000000E+00
  0.00000000E+00  0.00000000E+00  0.00000000E+00
  0.00000000E+00  0.00000000E+00  0.00000000E+00
  0.00000000E+00  0.00000000E+00  0.00000000E+00
  0.00000000E+00  0.00000000E+00  0.00000000E+00
  0.00000000E+00  0.00000000E+00  0.00000000E+00
  0.00000000E+00  0.00000000E+00  0.00000000E+00
  0.00000000E+00  0.00000000E+00  0.00000000E+00
  0.00000000E+00  0.00000000E+00  0.00000000E+00
  0.00000000E+00  0.00000000E+00  0.00000000E+00
  0.00000000E+00  0.00000000E+00  0.00000000E+00
  0.00000000E+00  0.00000000E+00  0.00000000E+00
  0.00000000E+00  0.00000000E+00  0.00000000E+00
  0.00000000E+00  0.00000000E+00  0.00000000E+00
  0.00000000E+00  0.00000000E+00  0.00000000E+00
  0.00000000E+00  0.00000000E+00  0.00000000E+00
  0.00000000E+00  0.00000000E+00  0.00000000E+00
  0.00000000E+00  0.00000000E+00  0.00000000E+00
  0.00000000E+00  0.00000000E+00  0.00000000E+00
  0.00000000E+00  0.00000000E+00  0.00000000E+00
  0.00000000E+00  0.00000000E+00  0.00000000E+00
  0.00000000E+00  0.00000000E+00  0.00000000E+00
  0.00000000E+00  0.00000000E+00  0.00000000E+00
  0.00000000E+00  0.00000000E+00  0.00000000E+00
  0.00000000E+00  0.00000000E+00  0.00000000E+00
  0.00000000E+00  0.00000000E+00  0.00000000E+00
  0.00000000E+00  0.00000000E+00  0.00000000E+00
  0.00000000E+00  0.00000000E+00  0.00000000E+00
  0.00000000E+00  0.00000000E+00  0.00000000E+00
  0.00000000E+00  0.00000000E+00  0.00000000E+00
  0.00000000E+00  0.00000000E+00  0.00000000E+00
  0.00000000E+00  0.00000000E+00  0.00000000E+00
  0.00000000E+00  0.00000000E+00  0.00000000E+00
  0.00000000E+00  0.00000000E+00  0.00000000E+00
  0.00000000E+00  0.00000000E+00  0.00000000E+00
  0.00000000E+00  0.00000000E+00  0.00000000E+00
  0.00000000E+00  0.00000000E+00  0.00000000E+00
  0.00000000E+00  0.00000000E+00  0.00000000E+00
  0.00000000E+00  0.00000000E+00  0.00000000E+00
  0.00000000E+00  0.00000000E+00  0.00000000E+00
  0.00000000E+00  0.00000000E+00  0.00000000E+00
  0.00000000E+00  0.00000000E+00  0.00000000E+00
  0.00000000E+00  0.00000000E+00  0.00000000E+00
  0.00000000E+00  0.00000000E+00  0.00000000E+00
  0.00000000E+00  0.00000000E+00  0.00000000E+00
  0.00000000E+00  0.00000000E+00  0.00000000E+00
  0.00000000E+00  0.00000000E+00  0.00000000E+00
  0.00000000E+00  0.00000000E+00  0.00000000E+00
  0.00000000E+00  0.00000000E+00  0.00000000E+00
  0.00000000E+00  0.00000000E+00  0.00000000E+00
  0.00000000E+00  0.00000000E+00  0.00000000E+00
  0.00000000E+00  0.00000000E+00  0.00000000E+00
  0.00000000E+00  0.00000000E+00  0.00000000E+00
  0.00000000E+00  0.00000000E+00  0.00000000E+00
  0.00000000E+00  0.00000000E+00  0.00000000E+00
  0.00000000E+00  0.00000000E+00  0.00000000E+00
  0.00000000E+00  0.00000000E+00  0.00000000E+00
  0.00000000E+00  0.00000000E+00  0.00000000E+00
  0.00000000E+00  0.00000000E+00  0.00000000E+00
  0.00000000E+00  0.00000000E+00  0.00000000E+00
  0.00000000E+00  0.00000000E+00  0.00000000E+00
  0.00000000E+00  0.00000000E+00  0.00000000E+00
  0.00000000E+00  0.00000000E+00  0.00000000E+00
  0.00000000E+00  0.00000000E+00  0.00000000E+00
  0.00000000E+00  0.00000000E+00  0.00000000E+00
  0.00000000E+00  0.00000000E+00  0.00000000E+00
  0.00000000E+00  0.00000000E+00  0.00000000E+00
  0.00000000E+00  0.00000000E+00  0.00000000E+00
  0.00000000E+00  0.00000000E+00  0.00000000E+00
  0.00000000E+00  0.00000000E+00  0.00000000E+00
  0.00000000E+00  0.00000000E+00  0.00000000E+00
  0.00000000E+00  0.00000000E+00  0.00000000E+00
  0.00000000E+00  0.00000000E+00  0.00000000E+00
  0.00000000E+00  0.00000000E+00  0.00000000E+00
  0.00000000E+00  0.00000000E+00  0.00000000E+00
  0.00000000E+00  0.00000000E+00  0.00000000E+00
  0.00000000E+00  0.00000000E+00  0.00000000E+00
  0.00000000E+00  0.00000000E+00  0.00000000E+00
  0.00000000E+00  0.00000000E+00  0.00000000E+00
  0.00000000E+00  0.00000000E+00  0.00000000E+00
  0.00000000E+00  0.00000000E+00  0.00000000E+00
  0.00000000E+00  0.00000000E+00  0.00000000E+00
  0.00000000E+00  0.00000000E+00  0.00000000E+00
  0.00000000E+00  0.00000000E+00  0.00000000E+00
  0.00000000E+00  0.00000000E+00  0.00000000E+00
  0.00000000E+00  0.00000000E+00  0.00000000E+00
  0.00000000E+00  0.00000000E+00  0.00000000E+00
  0.00000000E+00  0.00000000E+00  0.00000000E+00
  0.00000000E+00  0.00000000E+00  0.00000000E+00
  0.00000000E+00  0.00000000E+00  0.00000000E+00
  0.00000000E+00  0.00000000E+00  0.00000000E+00
  0.00000000E+00  0.00000000E+00  0.00000000E+00
  0.00000000E+00  0.00000000E+00  0.00000000E+00
  0.00000000E+00  0.00000000E+00  0.00000000E+00
  0.00000000E+00  0.00000000E+00  0.00000000E+00
  0.00000000E+00  0.00000000E+00  0.00000000E+00
  0.00000000E+00  0.00000000E+00  0.00000000E+00
  0.00000000E+00  0.00000000E+00  0.00000000E+00
  0.00000000E+00  0.00000000E+00  0.00000000E+00
  0.00000000E+00  0.00000000E+00  0.00000000E+00
  0.00000000E+00  0.00000000E+00  0.00000000E+00
