KPOINTS from doped, with reciprocal_density = 405/Å⁻³
0
Gamma
13 13 13
