Mg108 O108 - Bulk
1.0
  12.5998380000000001    0.0000000000000000    0.0000000000000000
   0.0000000000000000   12.5998380000000001    0.0000000000000000
   0.0000000000000000    0.0000000000000000   12.5998380000000001
Mg O
108 108
direct
   0.6666670000000000    0.0000000000000000    0.0000000000000000 Mg
   0.8333330000000000    0.1666670000000000    0.0000000000000000 Mg
   0.8333330000000000    0.0000000000000000    0.1666670000000000 Mg
   0.3333330000000000    0.0000000000000000    0.0000000000000000 Mg
   0.5000000000000000    0.1666670000000000    0.0000000000000000 Mg
   0.6666670000000000    0.3333330000000000    0.0000000000000000 Mg
   0.8333330000000000    0.5000000000000000    0.0000000000000000 Mg
   0.5000000000000000    0.0000000000000000    0.1666670000000000 Mg
   0.6666670000000000    0.1666670000000000    0.1666670000000000 Mg
   0.8333330000000000    0.3333330000000000    0.1666670000000000 Mg
   0.6666670000000000    0.0000000000000000    0.3333330000000000 Mg
   0.8333330000000000    0.1666670000000000    0.3333330000000000 Mg
   0.8333330000000000    0.0000000000000000    0.5000000000000000 Mg
   0.0000000000000000    0.0000000000000000    0.0000000000000000 Mg
   0.1666670000000000    0.1666670000000000    0.0000000000000000 Mg
   0.3333330000000000    0.3333330000000000    0.0000000000000000 Mg
   0.5000000000000000    0.5000000000000000    0.0000000000000000 Mg
   0.6666670000000000    0.6666670000000000    0.0000000000000000 Mg
   0.8333330000000000    0.8333330000000000    0.0000000000000000 Mg
   0.1666670000000000    0.0000000000000000    0.1666670000000000 Mg
   0.3333330000000000    0.1666670000000000    0.1666670000000000 Mg
   0.5000000000000000    0.3333330000000000    0.1666670000000000 Mg
   0.6666670000000000    0.5000000000000000    0.1666670000000000 Mg
   0.8333330000000000    0.6666670000000000    0.1666670000000000 Mg
   0.3333330000000000    0.0000000000000000    0.3333330000000000 Mg
   0.5000000000000000    0.1666670000000000    0.3333330000000000 Mg
   0.6666670000000000    0.3333330000000000    0.3333330000000000 Mg
   0.8333330000000000    0.5000000000000000    0.3333330000000000 Mg
   0.5000000000000000    0.0000000000000000    0.5000000000000000 Mg
   0.6666670000000000    0.1666670000000000    0.5000000000000000 Mg
   0.8333330000000000    0.3333330000000000    0.5000000000000000 Mg
   0.6666670000000000    0.0000000000000000    0.6666670000000000 Mg
   0.8333330000000000    0.1666670000000000    0.6666670000000000 Mg
   0.8333330000000000    0.0000000000000000    0.8333330000000000 Mg
   0.0000000000000000    0.3333330000000000    0.0000000000000000 Mg
   0.1666670000000000    0.5000000000000000    0.0000000000000000 Mg
   0.3333330000000000    0.6666670000000000    0.0000000000000000 Mg
   0.5000000000000000    0.8333330000000000    0.0000000000000000 Mg
   0.0000000000000000    0.1666670000000000    0.1666670000000000 Mg
   0.1666670000000000    0.3333330000000000    0.1666670000000000 Mg
   0.3333330000000000    0.5000000000000000    0.1666670000000000 Mg
   0.5000000000000000    0.6666670000000000    0.1666670000000000 Mg
   0.6666670000000000    0.8333330000000000    0.1666670000000000 Mg
   0.0000000000000000    0.0000000000000000    0.3333330000000000 Mg
   0.1666670000000000    0.1666670000000000    0.3333330000000000 Mg
   0.3333330000000000    0.3333330000000000    0.3333330000000000 Mg
   0.5000000000000000    0.5000000000000000    0.3333330000000000 Mg
   0.6666670000000000    0.6666670000000000    0.3333330000000000 Mg
   0.8333330000000000    0.8333330000000000    0.3333330000000000 Mg
   0.1666670000000000    0.0000000000000000    0.5000000000000000 Mg
   0.3333330000000000    0.1666670000000000    0.5000000000000000 Mg
   0.5000000000000000    0.3333330000000000    0.5000000000000000 Mg
   0.6666670000000000    0.5000000000000000    0.5000000000000000 Mg
   0.8333330000000000    0.6666670000000000    0.5000000000000000 Mg
   0.3333330000000000    0.0000000000000000    0.6666670000000000 Mg
   0.5000000000000000    0.1666670000000000    0.6666670000000000 Mg
   0.6666670000000000    0.3333330000000000    0.6666670000000000 Mg
   0.8333330000000000    0.5000000000000000    0.6666670000000000 Mg
   0.5000000000000000    0.0000000000000000    0.8333330000000000 Mg
   0.6666670000000000    0.1666670000000000    0.8333330000000000 Mg
   0.8333330000000000    0.3333330000000000    0.8333330000000000 Mg
   0.0000000000000000    0.6666670000000000    0.0000000000000000 Mg
   0.1666670000000000    0.8333330000000000    0.0000000000000000 Mg
   0.0000000000000000    0.5000000000000000    0.1666670000000000 Mg
   0.1666670000000000    0.6666670000000000    0.1666670000000000 Mg
   0.3333330000000000    0.8333330000000000    0.1666670000000000 Mg
   0.0000000000000000    0.3333330000000000    0.3333330000000000 Mg
   0.1666670000000000    0.5000000000000000    0.3333330000000000 Mg
   0.3333330000000000    0.6666670000000000    0.3333330000000000 Mg
   0.5000000000000000    0.8333330000000000    0.3333330000000000 Mg
   0.0000000000000000    0.1666670000000000    0.5000000000000000 Mg
   0.1666670000000000    0.3333330000000000    0.5000000000000000 Mg
   0.3333330000000000    0.5000000000000000    0.5000000000000000 Mg
   0.5000000000000000    0.6666670000000000    0.5000000000000000 Mg
   0.6666670000000000    0.8333330000000000    0.5000000000000000 Mg
   0.0000000000000000    0.0000000000000000    0.6666670000000000 Mg
   0.1666670000000000    0.1666670000000000    0.6666670000000000 Mg
   0.3333330000000000    0.3333330000000000    0.6666670000000000 Mg
   0.5000000000000000    0.5000000000000000    0.6666670000000000 Mg
   0.6666670000000000    0.6666670000000000    0.6666670000000000 Mg
   0.8333330000000000    0.8333330000000000    0.6666670000000000 Mg
   0.1666670000000000    0.0000000000000000    0.8333330000000000 Mg
   0.3333330000000000    0.1666670000000000    0.8333330000000000 Mg
   0.5000000000000000    0.3333330000000000    0.8333330000000000 Mg
   0.6666670000000000    0.5000000000000000    0.8333330000000000 Mg
   0.8333330000000000    0.6666670000000000    0.8333330000000000 Mg
   0.0000000000000000    0.8333330000000000    0.1666670000000000 Mg
   0.0000000000000000    0.6666670000000000    0.3333330000000000 Mg
   0.1666670000000000    0.8333330000000000    0.3333330000000000 Mg
   0.0000000000000000    0.5000000000000000    0.5000000000000000 Mg
   0.1666670000000000    0.6666670000000000    0.5000000000000000 Mg
   0.3333330000000000    0.8333330000000000    0.5000000000000000 Mg
   0.0000000000000000    0.3333330000000000    0.6666670000000000 Mg
   0.1666670000000000    0.5000000000000000    0.6666670000000000 Mg
   0.3333330000000000    0.6666670000000000    0.6666670000000000 Mg
   0.5000000000000000    0.8333330000000000    0.6666670000000000 Mg
   0.0000000000000000    0.1666670000000000    0.8333330000000000 Mg
   0.1666670000000000    0.3333330000000000    0.8333330000000000 Mg
   0.3333330000000000    0.5000000000000000    0.8333330000000000 Mg
   0.5000000000000000    0.6666670000000000    0.8333330000000000 Mg
   0.6666670000000000    0.8333330000000000    0.8333330000000000 Mg
   0.0000000000000000    0.8333330000000000    0.5000000000000000 Mg
   0.0000000000000000    0.6666670000000000    0.6666670000000000 Mg
   0.1666670000000000    0.8333330000000000    0.6666670000000000 Mg
   0.0000000000000000    0.5000000000000000    0.8333330000000000 Mg
   0.1666670000000000    0.6666670000000000    0.8333330000000000 Mg
   0.3333330000000000    0.8333330000000000    0.8333330000000000 Mg
   0.0000000000000000    0.8333330000000000    0.8333330000000000 Mg
   0.8333330000000000    0.1666670000000000    0.1666670000000000 O
   0.0000000000000000    0.3333330000000000    0.1666670000000000 O
   0.0000000000000000    0.1666670000000000    0.3333330000000000 O
   0.5000000000000000    0.1666670000000000    0.1666670000000000 O
   0.6666670000000000    0.3333330000000000    0.1666670000000000 O
   0.8333330000000000    0.5000000000000000    0.1666670000000000 O
   0.0000000000000000    0.6666670000000000    0.1666670000000000 O
   0.6666670000000000    0.1666670000000000    0.3333330000000000 O
   0.8333330000000000    0.3333330000000000    0.3333330000000000 O
   0.0000000000000000    0.5000000000000000    0.3333330000000000 O
   0.8333330000000000    0.1666670000000000    0.5000000000000000 O
   0.0000000000000000    0.3333330000000000    0.5000000000000000 O
   0.0000000000000000    0.1666670000000000    0.6666670000000000 O
   0.1666670000000000    0.1666670000000000    0.1666670000000000 O
   0.3333330000000000    0.3333330000000000    0.1666670000000000 O
   0.5000000000000000    0.5000000000000000    0.1666670000000000 O
   0.6666670000000000    0.6666670000000000    0.1666670000000000 O
   0.8333330000000000    0.8333330000000000    0.1666670000000000 O
   0.0000000000000000    0.0000000000000000    0.1666670000000000 O
   0.3333330000000000    0.1666670000000000    0.3333330000000000 O
   0.5000000000000000    0.3333330000000000    0.3333330000000000 O
   0.6666670000000000    0.5000000000000000    0.3333330000000000 O
   0.8333330000000000    0.6666670000000000    0.3333330000000000 O
   0.0000000000000000    0.8333330000000000    0.3333330000000000 O
   0.5000000000000000    0.1666670000000000    0.5000000000000000 O
   0.6666670000000000    0.3333330000000000    0.5000000000000000 O
   0.8333330000000000    0.5000000000000000    0.5000000000000000 O
   0.0000000000000000    0.6666670000000000    0.5000000000000000 O
   0.6666670000000000    0.1666670000000000    0.6666670000000000 O
   0.8333330000000000    0.3333330000000000    0.6666670000000000 O
   0.0000000000000000    0.5000000000000000    0.6666670000000000 O
   0.8333330000000000    0.1666670000000000    0.8333330000000000 O
   0.0000000000000000    0.3333330000000000    0.8333330000000000 O
   0.0000000000000000    0.1666670000000000    0.0000000000000000 O
   0.1666670000000000    0.5000000000000000    0.1666670000000000 O
   0.3333330000000000    0.6666670000000000    0.1666670000000000 O
   0.5000000000000000    0.8333330000000000    0.1666670000000000 O
   0.6666670000000000    0.0000000000000000    0.1666670000000000 O
   0.1666670000000000    0.3333330000000000    0.3333330000000000 O
   0.3333330000000000    0.5000000000000000    0.3333330000000000 O
   0.5000000000000000    0.6666670000000000    0.3333330000000000 O
   0.6666670000000000    0.8333330000000000    0.3333330000000000 O
   0.8333330000000000    0.0000000000000000    0.3333330000000000 O
   0.1666670000000000    0.1666670000000000    0.5000000000000000 O
   0.3333330000000000    0.3333330000000000    0.5000000000000000 O
   0.5000000000000000    0.5000000000000000    0.5000000000000000 O
   0.6666670000000000    0.6666670000000000    0.5000000000000000 O
   0.8333330000000000    0.8333330000000000    0.5000000000000000 O
   0.0000000000000000    0.0000000000000000    0.5000000000000000 O
   0.3333330000000000    0.1666670000000000    0.6666670000000000 O
   0.5000000000000000    0.3333330000000000    0.6666670000000000 O
   0.6666670000000000    0.5000000000000000    0.6666670000000000 O
   0.8333330000000000    0.6666670000000000    0.6666670000000000 O
   0.0000000000000000    0.8333330000000000    0.6666670000000000 O
   0.5000000000000000    0.1666670000000000    0.8333330000000000 O
   0.6666670000000000    0.3333330000000000    0.8333330000000000 O
   0.8333330000000000    0.5000000000000000    0.8333330000000000 O
   0.0000000000000000    0.6666670000000000    0.8333330000000000 O
   0.6666670000000000    0.1666670000000000    0.0000000000000000 O
   0.8333330000000000    0.3333330000000000    0.0000000000000000 O
   0.0000000000000000    0.5000000000000000    0.0000000000000000 O
   0.1666670000000000    0.8333330000000000    0.1666670000000000 O
   0.3333330000000000    0.0000000000000000    0.1666670000000000 O
   0.1666670000000000    0.6666670000000000    0.3333330000000000 O
   0.3333330000000000    0.8333330000000000    0.3333330000000000 O
   0.5000000000000000    0.0000000000000000    0.3333330000000000 O
   0.1666670000000000    0.5000000000000000    0.5000000000000000 O
   0.3333330000000000    0.6666670000000000    0.5000000000000000 O
   0.5000000000000000    0.8333330000000000    0.5000000000000000 O
   0.6666670000000000    0.0000000000000000    0.5000000000000000 O
   0.1666670000000000    0.3333330000000000    0.6666670000000000 O
   0.3333330000000000    0.5000000000000000    0.6666670000000000 O
   0.5000000000000000    0.6666670000000000    0.6666670000000000 O
   0.6666670000000000    0.8333330000000000    0.6666670000000000 O
   0.8333330000000000    0.0000000000000000    0.6666670000000000 O
   0.1666670000000000    0.1666670000000000    0.8333330000000000 O
   0.3333330000000000    0.3333330000000000    0.8333330000000000 O
   0.5000000000000000    0.5000000000000000    0.8333330000000000 O
   0.6666670000000000    0.6666670000000000    0.8333330000000000 O
   0.8333330000000000    0.8333330000000000    0.8333330000000000 O
   0.0000000000000000    0.0000000000000000    0.8333330000000000 O
   0.3333330000000000    0.1666670000000000    0.0000000000000000 O
   0.5000000000000000    0.3333330000000000    0.0000000000000000 O
   0.6666670000000000    0.5000000000000000    0.0000000000000000 O
   0.8333330000000000    0.6666670000000000    0.0000000000000000 O
   0.0000000000000000    0.8333330000000000    0.0000000000000000 O
   0.1666670000000000    0.0000000000000000    0.3333330000000000 O
   0.1666670000000000    0.8333330000000000    0.5000000000000000 O
   0.3333330000000000    0.0000000000000000    0.5000000000000000 O
   0.1666670000000000    0.6666670000000000    0.6666670000000000 O
   0.3333330000000000    0.8333330000000000    0.6666670000000000 O
   0.5000000000000000    0.0000000000000000    0.6666670000000000 O
   0.1666670000000000    0.5000000000000000    0.8333330000000000 O
   0.3333330000000000    0.6666670000000000    0.8333330000000000 O
   0.5000000000000000    0.8333330000000000    0.8333330000000000 O
   0.6666670000000000    0.0000000000000000    0.8333330000000000 O
   0.1666670000000000    0.3333330000000000    0.0000000000000000 O
   0.3333330000000000    0.5000000000000000    0.0000000000000000 O
   0.5000000000000000    0.6666670000000000    0.0000000000000000 O
   0.6666670000000000    0.8333330000000000    0.0000000000000000 O
   0.8333330000000000    0.0000000000000000    0.0000000000000000 O
   0.1666670000000000    0.0000000000000000    0.6666670000000000 O
   0.1666670000000000    0.8333330000000000    0.8333330000000000 O
   0.3333330000000000    0.0000000000000000    0.8333330000000000 O
   0.1666670000000000    0.6666670000000000    0.0000000000000000 O
   0.3333330000000000    0.8333330000000000    0.0000000000000000 O
   0.5000000000000000    0.0000000000000000    0.0000000000000000 O
   0.1666670000000000    0.0000000000000000    0.0000000000000000 O
