Mg109 O107                              
   1.00000000000000     
    12.5998379999999983    0.0000000000000004    0.0000000000000004
     0.0000000000000004   12.5998379999999983   -0.0000000000000004
    -0.0000000000000004   -0.0000000000000004   12.5998379999999983
   Mg   O 
   109   107
Direct
  0.6681615643480132  0.0008364267318657  0.9987832819442407
  0.8348302307643497  0.1671572490622541  0.9987410879393950
  0.8348528644282959  0.0008022962971157  0.1650908359261714
  0.3339129886254256  0.0009410072329360  0.9989212741255361
  0.5010862899890012  0.1662699927191439  0.0003439862681811
  0.6686453032520232  0.3335976040778991 -0.0001963422737163
  0.8351955279041107  0.5006928912057576  0.9989424275548687
  0.5011103234199976  0.0023903945061387  0.1642363337841010
  0.6684624949832338  0.1666535259552524  0.1646137472877263
  0.8356329620239648  0.3333733026841360  0.1646127402478522
  0.6686318045639982  0.0018219490563328  0.3315492148812353
  0.8356331358350945  0.1666153120203528  0.3313284394618470
  0.8352040834085357  0.0009507073579717  0.4986201588897401
  0.0010864402549047  0.0008916695636310  0.9988409326591725
  0.1674991691465815  0.1672706230491367  0.9992505230958181
  0.3337303506534079  0.3335331992100746  0.0007100722360680
  0.5008929441958829  0.5006383153521208  0.0031756583262403
  0.6680930900478245  0.6678055104419824 -0.0002825887736643
  0.8346801394612358  0.8344923938121902  0.9987419049332176
  0.1675376007945400  0.0012918017837327  0.1652372652774519
  0.3341656290531005  0.1677322079336044  0.1656867270134876
  0.5011332695394904  0.3335066296159956  0.1656672714945961
  0.6692387085529568  0.5006053972671908  0.1641651255179232
  0.8349475346776802  0.6682075761738687  0.1646251816341802
  0.3337523519857319  0.0027491121897238  0.3315108724980074
  0.5011546203391932  0.1676704261872831  0.3314933362639677
  0.6685337610661297  0.3300275430982555  0.3279791948108797
  0.8424925273813065  0.5010137647142145  0.3255219765386285
  0.5009074352832090  0.0052017090913884  0.4986285684762075
  0.6692837873995492  0.1661759497219964  0.4985697916381246
  0.8425143106379243  0.3275486625566215  0.4989876096266254
  0.6681025944024933  0.0017388070386853  0.6657688513761778
  0.8349391227243401  0.1666453221189161  0.6661606003537620
  0.8346652773318799  0.0007827518067943  0.8324323362333090
  0.0011704953051825  0.3336719427202736  0.9988892241775349
  0.1664813087393363  0.5008793892728313  0.0004223172526191
  0.3338050944616108  0.6684189889427162 -0.0001335387457274
  0.5009364650616630  0.8349129654716777 -0.0010367010675334
  0.0015121995726355  0.1672750487974013  0.1652159948773115
  0.1679602798159223  0.3339139691166774  0.1657088141307657
  0.3337663452195928  0.5008696007025187  0.1657182908034641
  0.5008761113995609  0.6689424746302741  0.1642021195902698
  0.6684254276585084  0.8346804042603276  0.1646481971234730
  0.0011942227589413  0.0009334875706676  0.3316103772958202
  0.1679923288014550  0.1677515307590769  0.3318565830202933
  0.3345982749150763  0.3343205209302967  0.3322990655968771
  0.5011393116676849  0.5008713566715991  0.3286013028392625
  0.6680120030295547  0.6677094075728420  0.3304736059500630
  0.8347082737377693  0.8344426840351937  0.3315386063178044
  0.1664856701033554  0.0024605960996086  0.4988526502782530
  0.3337857289044396  0.1677261569326824  0.4988747047197272
  0.5011492702781172  0.3305888008493281  0.4988878473095222
  0.7005027970981815  0.4818691058550225  0.4798419488716868
  0.8381307752443614  0.6682657571688372  0.4983790758255162
  0.3338044246192125  0.0018838148220594  0.6663657901610596
  0.5008574585029836  0.1662174263963221  0.6669511292518029
  0.6680349249663099  0.3324907540033933  0.6656984361163474
  0.8380941279169982  0.5003947086362617  0.6662702591959704
  0.5008891364284295  0.0009612701384580  0.8328853752566550
  0.6683975079988748  0.1666845833156296  0.8326455905015022
  0.8346840860054405  0.3335936904949877  0.8324282019955657
  0.0010958134113208  0.6680291817781308  0.9988132198589579
  0.1674006285740478  0.8346685961362929  0.9987764070897979
  0.0026912764829654  0.5009045700392295  0.1641986610901995
  0.1669539585582757  0.6682636863531217  0.1646719676063225
  0.3336678684105479  0.8353642442076453  0.1646528224013425
  0.0030136802452834  0.3334797083034841  0.3314696940019792
  0.1679461828796612  0.5008944426054579  0.3314768480235410
  0.3303202648053122  0.6682479301660428  0.3280695235947847
  0.5012363417584913  0.8420648427238934  0.3256650373273920
  0.0027165882727076  0.1661850873537040  0.4988449560983330
  0.1679671281102815  0.3334801481986913  0.4988572958034096
  0.3307769242225121  0.5009140196435582  0.4989305189448509
  0.4821533761064825  0.6998050598530845  0.4801941019656951
  0.6685591184166912  0.8377167077456779  0.4983821835485290
  0.0010607476741436  0.0008348082528073  0.6659751277577149
  0.1669183935106142  0.1667042742858022  0.6662503201378699
  0.3302968380184884  0.3301069839529193  0.6662454141818205
  0.4820545221786738  0.4822441236443875  0.6978113025199038
  0.6741422624282138  0.6737693194823517  0.6717500474523342
  0.8358142415158166  0.8355084168482596  0.6656732439131330
  0.1673751526046458  0.0008060543319850  0.8326304019835591
  0.3336165026550971  0.1666805277826962  0.8333374269387358
  0.5012441437792103  0.3277189591599626  0.8400357190679874
  0.6685532634222864  0.5004326221273043  0.8356838830159630
  0.8358255284348826  0.6677305882770493  0.8335139249188434
  0.0010485770593804  0.8346803367546362  0.1651049585465600
  0.0021427270321892  0.6684328193312306  0.3315310066742070
  0.1669221421853296  0.8353919061774919  0.3313629535048960
  0.0055694427612715  0.5006002197656273  0.4986050703731492
  0.1663923177885089  0.6690067871169785  0.4985701915908399
  0.3278999365969372  0.8421403343471614  0.4990141738513918
  0.0021450006633294  0.3335447036519534  0.6663873687574380
  0.1663576065899897  0.5005923069626096  0.6669731228923818
  0.3325844198260979  0.6677536311049900  0.6657319087649382
  0.5006699005819012  0.8377808288448501  0.6662588494340252
  0.0009844311649682  0.1671461902428106  0.8326352544219278
  0.1668726277902103  0.3333990247879481  0.8333633189789907
  0.3278286260744804  0.5010389818794081  0.8401217609515823
  0.5006722106285795  0.6682603873976253  0.8357899037437193
  0.6679828051969368  0.8355351150046056  0.8334858449281004
  0.0012530298058533  0.8349544939822381  0.4986063648941557
  0.0020111826602299  0.6678383991897621  0.6657875136490969
  0.1668737933105805  0.8347030117505743  0.6661377416177401
  0.0012098516423966  0.5006631035748612  0.8329354040581005
  0.1668656102839706  0.6681799713374373  0.8326827274252274
  0.3338112498314817  0.8344521021063346  0.8324377733774773
  0.0010425678463152  0.8344863685361782  0.8324236076045981
  0.5585943920936512  0.5577970215767361  0.5558650006259434
  0.8347524911376841  0.1675190443810219  0.1654079386286895
  0.0015762372690147  0.3342799352601921  0.1654658411555974
  0.0015829734849981  0.1675426558365710  0.3321685247288068
  0.5014237685101626  0.1679594932415553  0.1658900659338463
  0.6683937208808743  0.3338345430089695  0.1651579370511010
  0.8357749707669060  0.5008953086516131  0.1643187416652502
  0.0009874035411480  0.6677515362412720  0.1653232930527147
  0.6684031320047843  0.1672263669089323  0.3317588358753116
  0.8354083489727326  0.3348089480117643  0.3327395618888063
  0.0037031872431301  0.5010246814283245  0.3312063978336314
  0.8358172506748510  0.1663413067073941  0.4988021792891810
  0.0037370132441097  0.3332032244513267  0.4989487012419564
  0.0009584590237855  0.1673804402852209  0.6656458625606828
  0.1680424483266448  0.1677786561632215  0.1656670892870916
  0.3348813539826742  0.3346385914550530  0.1665312398354581
  0.5016007947079364  0.5013529358101584  0.1664775596180621
  0.6678111805011695  0.6675661792136419  0.1658644260390968
  0.8342404398828381  0.8340225909219676  0.1655256684135817
  0.0011285598733362  0.0008910510520841  0.1653772699577047
  0.3349111866864589  0.1685891043938748  0.3325795577711528
  0.5021642196301203  0.3353010639333581  0.3332826389363471
  0.6706485902260207  0.4996317999442444  0.3291990643832481
  0.8341541272022107  0.6666684316082904  0.3329946245193833
  0.0008062059379787  0.8343149946109534  0.3321076819299850
  0.5016329695005890  0.1685224623868171  0.4993142998796010
  0.6707097889413373  0.3312206854986706  0.4976036695160641
  0.8458012098588167  0.4999817745987470  0.4979230353670681
  0.0021532624150286  0.6680924655571330  0.4987615558813679
  0.6678236029074583  0.1679007403477644  0.6654776323659727
  0.8341402039555151  0.3350506669061672  0.6646001431108017
  0.0021389660004459  0.5008174025696807  0.6660204702898267
  0.8342091408070872  0.1676122835994611  0.8319295917296893
  0.0007694883281727  0.3342177420438480  0.8322262676083035
  0.0011022989323309  0.1674767068474141  0.9987687422162832
  0.1682469170063844  0.5012135958874347  0.1659115119372890
  0.3341384113524607  0.6681307443375943  0.1652184570019979
  0.5011397466641789  0.8354832622229701  0.1643756352814193
  0.6679107352226531  0.0006809610822786  0.1653475835630564
  0.1688659824145050  0.3346281808285929  0.3325546066561567
  0.3355870819783236  0.5018897840976411  0.3333202611586842
  0.4998991781384938  0.6703084463239170  0.3293487879119098
  0.6669075080087932  0.8338013728964194  0.3330598391201122
  0.8345208470522886  0.0005108960639028  0.3321177578640450
  0.1682524180914796  0.1679688285605088  0.4991225796600793
  0.3355992128424365  0.3353448573639193  0.4998601078361053
  0.6615111529858704  0.6609948328260828  0.4991846622050363
  0.8331631966135910  0.8328411894557812  0.4988480613558682
  0.0009475772351287  0.0006590258622905  0.4988560073539997
  0.3341307117864740  0.1672861085796191  0.6660673113283406
  0.4999023108820559  0.3313997688627005  0.6683199482182309
  0.6615788778089664  0.5012816669641236  0.6590310904717354
  0.8344591807360787  0.6666584633480274  0.6645861465935118
  0.0008408251366516  0.8340550504720424  0.6653610691853387
  0.5011237248268919  0.1664179736072763  0.8334151772404759
  0.6669060776588346  0.3351220612714623  0.8317463637133792
  0.8331448723851429  0.5009391946660682  0.8308043972343491
  0.0008380354470445  0.6674712009370296  0.8319630901778191
  0.6679016193619269  0.1674268334685080  0.9986150184547306
  0.8345247461761701  0.3342289167649097  0.9984581023251172
  0.0009351591180617  0.5009620388797593  0.9986118711896240
  0.1678123055252392  0.8345735196130737  0.1654650858922205
  0.3345405889335836  0.0013261136190888  0.1655199310400625
  0.1675130256266267  0.6681527635269375  0.3317920049163617
  0.3350902113183138  0.8351049820149311  0.3328062637307972
  0.5012642192871842  0.0033607859929738  0.3312704647246409
  0.1687393793528812  0.5013321338965873  0.4992806712310190
  0.3314198193517544  0.6703388252143867  0.4976747752884912
  0.5002745475479585  0.8452551262842833  0.4980263285445068
  0.6683540825943034  0.0018174276332955  0.4987751589949096
  0.1674931442566452  0.3338455890025537  0.6660739080420387
  0.3313321550790634  0.4996982680947562  0.6683489761623620
  0.5014769409688421  0.6608048752590202  0.6589047933630672
  0.6668950436745849  0.8340639899830038  0.6645504846337359
  0.8342550668554334  0.0005547872553746  0.6653637180000760
  0.1677650131965374  0.1675614013290880  0.8324724943712180
  0.3350597684821831  0.3348835274003198  0.8330549512424917
  0.5002744152262637  0.5000782419921229  0.8432539492692290
  0.6669236800690933  0.6666563594664408  0.8320282497894205
  0.8338626102540742  0.8336198279399103  0.8315275019534624
  0.0009115512324564  0.0006858616231491  0.8321193464067145
  0.3345326443729527  0.1675966356093219  0.9992362437371637
  0.5012492242323294  0.3333014992990136  0.0013130175748872
  0.6683478879970285  0.5008619263691040 -0.0002349356459317
  0.8342556930102227  0.6674590683574521  0.9985192843983562
  0.0009195803098136  0.8342173887326357  0.9986063873010004
  0.1678378130045055  0.0013472039611486  0.3321881834750116
  0.1666564138770499  0.8355448118020937  0.4987957166294076
  0.3335417842222269  0.0034200963648323  0.4989886818857283
  0.1680650433379884  0.6675942934355870  0.6654953464370335
  0.3353320582132112  0.8338260686488487  0.6646045039236939
  0.5011013152764252  0.0018381309446661  0.6660082935993551
  0.1666189046910224  0.5008998700702217  0.8334788959701910
  0.3353241597223610  0.6666732384816852  0.8317613599103270
  0.5011862191091415  0.8328038893685529  0.8307501432924255
  0.6676606684624128  0.0005522997102527  0.8318964227645816
  0.1678064051346033  0.3342782968428881  0.9992702794433879
  0.3335207210949584  0.5010659125586594  0.0013565261260529
  0.5011026013845251  0.6680533476251219 -0.0001759935151413
  0.6676733392723782  0.8339857190215094  0.9984905567845584
  0.8343466104273500  0.0006850837803479  0.9985887377458245
  0.1676838269581052  0.0007204032884723  0.6656289765235158
  0.1678700269963145  0.8339915309340326  0.8319262190366884
  0.3344650105198778  0.0005226862461903  0.8321876617189117
  0.1676944297681403  0.6677366240103362  0.9986514495910442
  0.3345093760219027  0.8342852928742126  0.9984788672125492
  0.5011836864436192  0.0006543083614524  0.9985774169234600
  0.1677371648429515  0.0008972724621141  0.9987992627594244
 
  0.00000000E+00  0.00000000E+00  0.00000000E+00
  0.00000000E+00  0.00000000E+00  0.00000000E+00
  0.00000000E+00  0.00000000E+00  0.00000000E+00
  0.00000000E+00  0.00000000E+00  0.00000000E+00
  0.00000000E+00  0.00000000E+00  0.00000000E+00
  0.00000000E+00  0.00000000E+00  0.00000000E+00
  0.00000000E+00  0.00000000E+00  0.00000000E+00
  0.00000000E+00  0.00000000E+00  0.00000000E+00
  0.00000000E+00  0.00000000E+00  0.00000000E+00
  0.00000000E+00  0.00000000E+00  0.00000000E+00
  0.00000000E+00  0.00000000E+00  0.00000000E+00
  0.00000000E+00  0.00000000E+00  0.00000000E+00
  0.00000000E+00  0.00000000E+00  0.00000000E+00
  0.00000000E+00  0.00000000E+00  0.00000000E+00
  0.00000000E+00  0.00000000E+00  0.00000000E+00
  0.00000000E+00  0.00000000E+00  0.00000000E+00
  0.00000000E+00  0.00000000E+00  0.00000000E+00
  0.00000000E+00  0.00000000E+00  0.00000000E+00
  0.00000000E+00  0.00000000E+00  0.00000000E+00
  0.00000000E+00  0.00000000E+00  0.00000000E+00
  0.00000000E+00  0.00000000E+00  0.00000000E+00
  0.00000000E+00  0.00000000E+00  0.00000000E+00
  0.00000000E+00  0.00000000E+00  0.00000000E+00
  0.00000000E+00  0.00000000E+00  0.00000000E+00
  0.00000000E+00  0.00000000E+00  0.00000000E+00
  0.00000000E+00  0.00000000E+00  0.00000000E+00
  0.00000000E+00  0.00000000E+00  0.00000000E+00
  0.00000000E+00  0.00000000E+00  0.00000000E+00
  0.00000000E+00  0.00000000E+00  0.00000000E+00
  0.00000000E+00  0.00000000E+00  0.00000000E+00
  0.00000000E+00  0.00000000E+00  0.00000000E+00
  0.00000000E+00  0.00000000E+00  0.00000000E+00
  0.00000000E+00  0.00000000E+00  0.00000000E+00
  0.00000000E+00  0.00000000E+00  0.00000000E+00
  0.00000000E+00  0.00000000E+00  0.00000000E+00
  0.00000000E+00  0.00000000E+00  0.00000000E+00
  0.00000000E+00  0.00000000E+00  0.00000000E+00
  0.00000000E+00  0.00000000E+00  0.00000000E+00
  0.00000000E+00  0.00000000E+00  0.00000000E+00
  0.00000000E+00  0.00000000E+00  0.00000000E+00
  0.00000000E+00  0.00000000E+00  0.00000000E+00
  0.00000000E+00  0.00000000E+00  0.00000000E+00
  0.00000000E+00  0.00000000E+00  0.00000000E+00
  0.00000000E+00  0.00000000E+00  0.00000000E+00
  0.00000000E+00  0.00000000E+00  0.00000000E+00
  0.00000000E+00  0.00000000E+00  0.00000000E+00
  0.00000000E+00  0.00000000E+00  0.00000000E+00
  0.00000000E+00  0.00000000E+00  0.00000000E+00
  0.00000000E+00  0.00000000E+00  0.00000000E+00
  0.00000000E+00  0.00000000E+00  0.00000000E+00
  0.00000000E+00  0.00000000E+00  0.00000000E+00
  0.00000000E+00  0.00000000E+00  0.00000000E+00
  0.00000000E+00  0.00000000E+00  0.00000000E+00
  0.00000000E+00  0.00000000E+00  0.00000000E+00
  0.00000000E+00  0.00000000E+00  0.00000000E+00
  0.00000000E+00  0.00000000E+00  0.00000000E+00
  0.00000000E+00  0.00000000E+00  0.00000000E+00
  0.00000000E+00  0.00000000E+00  0.00000000E+00
  0.00000000E+00  0.00000000E+00  0.00000000E+00
  0.00000000E+00  0.00000000E+00  0.00000000E+00
  0.00000000E+00  0.00000000E+00  0.00000000E+00
  0.00000000E+00  0.00000000E+00  0.00000000E+00
  0.00000000E+00  0.00000000E+00  0.00000000E+00
  0.00000000E+00  0.00000000E+00  0.00000000E+00
  0.00000000E+00  0.00000000E+00  0.00000000E+00
  0.00000000E+00  0.00000000E+00  0.00000000E+00
  0.00000000E+00  0.00000000E+00  0.00000000E+00
  0.00000000E+00  0.00000000E+00  0.00000000E+00
  0.00000000E+00  0.00000000E+00  0.00000000E+00
  0.00000000E+00  0.00000000E+00  0.00000000E+00
  0.00000000E+00  0.00000000E+00  0.00000000E+00
  0.00000000E+00  0.00000000E+00  0.00000000E+00
  0.00000000E+00  0.00000000E+00  0.00000000E+00
  0.00000000E+00  0.00000000E+00  0.00000000E+00
  0.00000000E+00  0.00000000E+00  0.00000000E+00
  0.00000000E+00  0.00000000E+00  0.00000000E+00
  0.00000000E+00  0.00000000E+00  0.00000000E+00
  0.00000000E+00  0.00000000E+00  0.00000000E+00
  0.00000000E+00  0.00000000E+00  0.00000000E+00
  0.00000000E+00  0.00000000E+00  0.00000000E+00
  0.00000000E+00  0.00000000E+00  0.00000000E+00
  0.00000000E+00  0.00000000E+00  0.00000000E+00
  0.00000000E+00  0.00000000E+00  0.00000000E+00
  0.00000000E+00  0.00000000E+00  0.00000000E+00
  0.00000000E+00  0.00000000E+00  0.00000000E+00
  0.00000000E+00  0.00000000E+00  0.00000000E+00
  0.00000000E+00  0.00000000E+00  0.00000000E+00
  0.00000000E+00  0.00000000E+00  0.00000000E+00
  0.00000000E+00  0.00000000E+00  0.00000000E+00
  0.00000000E+00  0.00000000E+00  0.00000000E+00
  0.00000000E+00  0.00000000E+00  0.00000000E+00
  0.00000000E+00  0.00000000E+00  0.00000000E+00
  0.00000000E+00  0.00000000E+00  0.00000000E+00
  0.00000000E+00  0.00000000E+00  0.00000000E+00
  0.00000000E+00  0.00000000E+00  0.00000000E+00
  0.00000000E+00  0.00000000E+00  0.00000000E+00
  0.00000000E+00  0.00000000E+00  0.00000000E+00
  0.00000000E+00  0.00000000E+00  0.00000000E+00
  0.00000000E+00  0.00000000E+00  0.00000000E+00
  0.00000000E+00  0.00000000E+00  0.00000000E+00
  0.00000000E+00  0.00000000E+00  0.00000000E+00
  0.00000000E+00  0.00000000E+00  0.00000000E+00
  0.00000000E+00  0.00000000E+00  0.00000000E+00
  0.00000000E+00  0.00000000E+00  0.00000000E+00
  0.00000000E+00  0.00000000E+00  0.00000000E+00
  0.00000000E+00  0.00000000E+00  0.00000000E+00
  0.00000000E+00  0.00000000E+00  0.00000000E+00
  0.00000000E+00  0.00000000E+00  0.00000000E+00
  0.00000000E+00  0.00000000E+00  0.00000000E+00
  0.00000000E+00  0.00000000E+00  0.00000000E+00
  0.00000000E+00  0.00000000E+00  0.00000000E+00
  0.00000000E+00  0.00000000E+00  0.00000000E+00
  0.00000000E+00  0.00000000E+00  0.00000000E+00
  0.00000000E+00  0.00000000E+00  0.00000000E+00
  0.00000000E+00  0.00000000E+00  0.00000000E+00
  0.00000000E+00  0.00000000E+00  0.00000000E+00
  0.00000000E+00  0.00000000E+00  0.00000000E+00
  0.00000000E+00  0.00000000E+00  0.00000000E+00
  0.00000000E+00  0.00000000E+00  0.00000000E+00
  0.00000000E+00  0.00000000E+00  0.00000000E+00
  0.00000000E+00  0.00000000E+00  0.00000000E+00
  0.00000000E+00  0.00000000E+00  0.00000000E+00
  0.00000000E+00  0.00000000E+00  0.00000000E+00
  0.00000000E+00  0.00000000E+00  0.00000000E+00
  0.00000000E+00  0.00000000E+00  0.00000000E+00
  0.00000000E+00  0.00000000E+00  0.00000000E+00
  0.00000000E+00  0.00000000E+00  0.00000000E+00
  0.00000000E+00  0.00000000E+00  0.00000000E+00
  0.00000000E+00  0.00000000E+00  0.00000000E+00
  0.00000000E+00  0.00000000E+00  0.00000000E+00
  0.00000000E+00  0.00000000E+00  0.00000000E+00
  0.00000000E+00  0.00000000E+00  0.00000000E+00
  0.00000000E+00  0.00000000E+00  0.00000000E+00
  0.00000000E+00  0.00000000E+00  0.00000000E+00
  0.00000000E+00  0.00000000E+00  0.00000000E+00
  0.00000000E+00  0.00000000E+00  0.00000000E+00
  0.00000000E+00  0.00000000E+00  0.00000000E+00
  0.00000000E+00  0.00000000E+00  0.00000000E+00
  0.00000000E+00  0.00000000E+00  0.00000000E+00
  0.00000000E+00  0.00000000E+00  0.00000000E+00
  0.00000000E+00  0.00000000E+00  0.00000000E+00
  0.00000000E+00  0.00000000E+00  0.00000000E+00
  0.00000000E+00  0.00000000E+00  0.00000000E+00
  0.00000000E+00  0.00000000E+00  0.00000000E+00
  0.00000000E+00  0.00000000E+00  0.00000000E+00
  0.00000000E+00  0.00000000E+00  0.00000000E+00
  0.00000000E+00  0.00000000E+00  0.00000000E+00
  0.00000000E+00  0.00000000E+00  0.00000000E+00
  0.00000000E+00  0.00000000E+00  0.00000000E+00
  0.00000000E+00  0.00000000E+00  0.00000000E+00
  0.00000000E+00  0.00000000E+00  0.00000000E+00
  0.00000000E+00  0.00000000E+00  0.00000000E+00
  0.00000000E+00  0.00000000E+00  0.00000000E+00
  0.00000000E+00  0.00000000E+00  0.00000000E+00
  0.00000000E+00  0.00000000E+00  0.00000000E+00
  0.00000000E+00  0.00000000E+00  0.00000000E+00
  0.00000000E+00  0.00000000E+00  0.00000000E+00
  0.00000000E+00  0.00000000E+00  0.00000000E+00
  0.00000000E+00  0.00000000E+00  0.00000000E+00
  0.00000000E+00  0.00000000E+00  0.00000000E+00
  0.00000000E+00  0.00000000E+00  0.00000000E+00
  0.00000000E+00  0.00000000E+00  0.00000000E+00
  0.00000000E+00  0.00000000E+00  0.00000000E+00
  0.00000000E+00  0.00000000E+00  0.00000000E+00
  0.00000000E+00  0.00000000E+00  0.00000000E+00
  0.00000000E+00  0.00000000E+00  0.00000000E+00
  0.00000000E+00  0.00000000E+00  0.00000000E+00
  0.00000000E+00  0.00000000E+00  0.00000000E+00
  0.00000000E+00  0.00000000E+00  0.00000000E+00
  0.00000000E+00  0.00000000E+00  0.00000000E+00
  0.00000000E+00  0.00000000E+00  0.00000000E+00
  0.00000000E+00  0.00000000E+00  0.00000000E+00
  0.00000000E+00  0.00000000E+00  0.00000000E+00
  0.00000000E+00  0.00000000E+00  0.00000000E+00
  0.00000000E+00  0.00000000E+00  0.00000000E+00
  0.00000000E+00  0.00000000E+00  0.00000000E+00
  0.00000000E+00  0.00000000E+00  0.00000000E+00
  0.00000000E+00  0.00000000E+00  0.00000000E+00
  0.00000000E+00  0.00000000E+00  0.00000000E+00
  0.00000000E+00  0.00000000E+00  0.00000000E+00
  0.00000000E+00  0.00000000E+00  0.00000000E+00
  0.00000000E+00  0.00000000E+00  0.00000000E+00
  0.00000000E+00  0.00000000E+00  0.00000000E+00
  0.00000000E+00  0.00000000E+00  0.00000000E+00
  0.00000000E+00  0.00000000E+00  0.00000000E+00
  0.00000000E+00  0.00000000E+00  0.00000000E+00
  0.00000000E+00  0.00000000E+00  0.00000000E+00
  0.00000000E+00  0.00000000E+00  0.00000000E+00
  0.00000000E+00  0.00000000E+00  0.00000000E+00
  0.00000000E+00  0.00000000E+00  0.00000000E+00
  0.00000000E+00  0.00000000E+00  0.00000000E+00
  0.00000000E+00  0.00000000E+00  0.00000000E+00
  0.00000000E+00  0.00000000E+00  0.00000000E+00
  0.00000000E+00  0.00000000E+00  0.00000000E+00
  0.00000000E+00  0.00000000E+00  0.00000000E+00
  0.00000000E+00  0.00000000E+00  0.00000000E+00
  0.00000000E+00  0.00000000E+00  0.00000000E+00
  0.00000000E+00  0.00000000E+00  0.00000000E+00
  0.00000000E+00  0.00000000E+00  0.00000000E+00
  0.00000000E+00  0.00000000E+00  0.00000000E+00
  0.00000000E+00  0.00000000E+00  0.00000000E+00
  0.00000000E+00  0.00000000E+00  0.00000000E+00
  0.00000000E+00  0.00000000E+00  0.00000000E+00
  0.00000000E+00  0.00000000E+00  0.00000000E+00
  0.00000000E+00  0.00000000E+00  0.00000000E+00
  0.00000000E+00  0.00000000E+00  0.00000000E+00
  0.00000000E+00  0.00000000E+00  0.00000000E+00
  0.00000000E+00  0.00000000E+00  0.00000000E+00
  0.00000000E+00  0.00000000E+00  0.00000000E+00
  0.00000000E+00  0.00000000E+00  0.00000000E+00
  0.00000000E+00  0.00000000E+00  0.00000000E+00
  0.00000000E+00  0.00000000E+00  0.00000000E+00
  0.00000000E+00  0.00000000E+00  0.00000000E+00
  0.00000000E+00  0.00000000E+00  0.00000000E+00
  0.00000000E+00  0.00000000E+00  0.00000000E+00
  0.00000000E+00  0.00000000E+00  0.00000000E+00
