60.0% N(Distort)=4 ~[0.5,0.5,0.5]       
   1.00000000000000     
    12.5998379999999983    0.0000000000000004    0.0000000000000004
     0.0000000000000004   12.5998379999999983   -0.0000000000000004
    -0.0000000000000004   -0.0000000000000004   12.5998379999999983
   Mg   O 
   109   107
Direct
  0.6668014166315219  0.0004379114658478 -0.0001991160858936
  0.8333250493265445  0.1667685992285642 -0.0003205460183447
  0.8332187159279969  0.0001294059097293  0.1661643834612682
  0.3325203494132408  0.0005573315485948 -0.0003006133234874
  0.4998005259736096  0.1665207051463335 -0.0001658419531967
  0.6668836682101641  0.3330271303715054  0.0007103260863833
  0.8342182585983243  0.5005223566706054  0.0012694224909801
  0.4996331187015960 -0.0010419530471317  0.1650982918791585
  0.6671154444638442  0.1660550222177901  0.1655310592773487
  0.8337692640457554  0.3331907968145817  0.1655837316780469
  0.6669756545970447 -0.0013712841217790  0.3323555468706285
  0.8338271313794963  0.1660635104523175  0.3322641953945372
  0.8341976605023581 -0.0010002492084312  0.4997149919682806
 -0.0003968332462385  0.0005249679743990 -0.0002741032494318
  0.1660274859577494  0.1669520167939225 -0.0003306106980751
  0.3326761352600545  0.3335937570703577  0.0005641544148362
  0.4998472118022949  0.5007817639813656  0.0041802367944452
  0.6669855663925801  0.6678930290675845  0.0016295528781257
  0.8332353775911384  0.8341078071937214  0.0001247877080145
  0.1658727777098236  0.0006341821985638  0.1660261585123898
  0.3322914820361444  0.1667112368926993  0.1655187388498247
  0.4998725043495906  0.3324678817437651  0.1650757069403350
  0.6669195145871565  0.5004996182278948  0.1666276303652819
  0.8327593695343352  0.6674864973133237  0.1665811100980797
  0.3321286132651954 -0.0004389475704173  0.3324586769841658
  0.4995080717633693  0.1592325747507113  0.3264749174455461
  0.6703598841450624  0.3331509494261022  0.3289611333193581
  0.8327357656144717  0.5005163752566248  0.3324349861926841
  0.4998607054888454 -0.0038967291068835  0.4994799744094404
  0.6728155237492152  0.1592679780704340  0.4998349111410251
  0.8341908159606888  0.3325050658869877  0.4994845449185673
  0.6668818016541522 -0.0004592503469119  0.6671918060873493
  0.8337781514467195  0.1667101644792157  0.6670248584596374
  0.8333099064814620  0.0005692298646889  0.8334559222117126
 -0.0003687813213939  0.3334360587456135 -0.0002835022923412
  0.1656239492045815  0.5007178403915591 -0.0001678740238084
  0.3321040549672182  0.6678334168624623  0.0007175692637339
  0.4996149894174425  0.8351475464498518  0.0012833807113345
 -0.0003039135773270  0.1668008373773826  0.1660474435707547
  0.1658062786281196  0.3332222266231193  0.1655320135364791
  0.3315510875997402  0.5008093488331874  0.1651082587862227
  0.4995939096087412  0.6678350093565709  0.1666233665324282
  0.6665973573798840  0.8336312990745471  0.1665890882986748
 -0.0004351827979231  0.0005019412211283  0.3325562915860715
  0.1660377266784056  0.1669583462703289  0.3324693679577986
  0.3327427927030048  0.3336486107973691  0.3312720846327796
  0.4995917719137932  0.5005239683337915  0.3297375116784581
  0.6661722878345028  0.6670778706587308  0.3331677604585701
  0.8327602711368153  0.8336778275386065  0.3327664140622633
  0.1656270512332934  0.0004551244432059  0.4995442072281855
  0.3322444114247274  0.1636392978605493  0.4992632642291164
  0.5182639772948898  0.3012727800302779  0.4808843807930455
  0.6695850975840484  0.5005087455342860  0.4997436663989619
  0.8327390291666933  0.6678156388563993  0.4997378798042702
  0.3326612985120960 -0.0003087618291676  0.6666834909229774
  0.5000734481648899  0.1636489887140503  0.6670989912782949
  0.6679489008243321  0.3336385901313140  0.6665846943658068
  0.8342078035755863  0.5007865972810613  0.6677846413321907
  0.4997969207674079  0.0004338024524058  0.8337230350274913
  0.6668645772972829  0.1669179295936004  0.8333082386228650
  0.8337689388361820  0.3331978872337569  0.8335344221501119
 -0.0004524182951225  0.6676989989148651 -0.0002285673140156
  0.1658539264604563  0.8342448205325050 -0.0003477561837555
  0.9980508193445886  0.5005498505352819  0.1651034961993011
  0.1651177906071123  0.6680571066323834  0.1654989453036590
  0.3322490641511882  0.8347355453208466  0.1655464854047305
 -0.0013816927474657  0.3330610221298092  0.3324632615181546
  0.1583551546940092  0.5004341342051489  0.3265275426697133
  0.3322091206228299  0.6713543221076728  0.3289525542266801
  0.4996017125664232  0.8336393556683956  0.3324210463631070
 -0.0004992720500758  0.1665572062588702  0.4995347704374411
  0.1627306536110835  0.3331613179664031  0.4992720759580681
  0.3004041690874277  0.5192927930683302  0.4810234298083070
  0.4995918715030970  0.6705038678468943  0.4997463967940937
  0.6669063696053924  0.8336262504977326  0.4997290185654035
 -0.0003932964142857  0.0005566071242257  0.6667974457622631
  0.1649132451996754  0.1658738111102153  0.6665915034791643
  0.3267926692638128  0.3276598699364069  0.6725835766719594
  0.5182996279973794  0.5193399392769521  0.6989877281422421
  0.6703555632799589  0.6713150983433533  0.6671044288878569
  0.8337581994168566  0.8346811279328175  0.6670482234095589
  0.1659972021526140  0.0006132077329854  0.8333138858682582
  0.3327297218382930  0.1658896125609306  0.8343693746410944
  0.5000845836388300  0.3331353557400365  0.8366102256667511
  0.6728088078214040  0.5003999093414681  0.8410038250179046
  0.8338110726058584  0.6680236614110022  0.8342082804587624
 -0.0007695318715752  0.8341393357231935  0.1661284865885469
 -0.0022803370934735  0.6679171982849632  0.3323509172494090
  0.1651077640717886  0.8348025121084581  0.3322215018498937
 -0.0048153994499028  0.5008029370788625  0.4994807783736893
  0.1583589698581107  0.6738002245177940  0.4998477321182490
  0.3315518833011040  0.8351761619406954  0.4994640752998752
  0.9987556238833184  0.3335995700598980  0.6666568729153436
  0.1627255127150266  0.5009994007816191  0.6671239779856352
  0.3327196015625722  0.6689725149621034  0.6666130986407686
  0.4998585064733067  0.8351807316979126  0.6677827086443214
 -0.0003237986601043  0.1669232790134786  0.8333112245589318
  0.1649333638720810  0.3336582811009333  0.8343947913625284
  0.3322388239144505  0.5009921949409392  0.8366262773463551
  0.4994989106895047  0.6737792923072889  0.8410148564067731
  0.6671111870372755  0.8347352244058752  0.8342136499488763
 -0.0019562356433477  0.8351690241611498  0.4997041728026833
 -0.0013941513963215  0.6678190262145636  0.6671978897273492
  0.1657697827215284  0.8347517390707287  0.6670347037167141
 -0.0004897911675700  0.5007129227141223  0.8337179549232772
  0.1660254316458220  0.6677773760149828  0.8333027629123024
  0.3322555757727508  0.8347502986528749  0.8335474912007980
 -0.0003273226362637  0.8342124725917082  0.8334491446501653
  0.4428709965854943  0.4437146306638082  0.5565348096279260
  0.8329719068474104  0.1669055564991354  0.1663843458105425
 -0.0002595938410604  0.3337976669164272  0.1662974263287467
 -0.0000839005678280  0.1671698387098819  0.3330757430591977
  0.4996614600492437  0.1659044711354431  0.1652481476309438
  0.6666438849246665  0.3333355935294131  0.1661358938413613
  0.8324536424237063  0.5002904017478690  0.1668821233809876
 -0.0008785683235539  0.6671786605419809  0.1664015933241939
  0.6657120409748850  0.1663131867470496  0.3336068217724998
  0.8331970627191997  0.3333630926765286  0.3327154256332427
 -0.0029831251265563  0.5004909466839578  0.3320843052060832
  0.8340500839262235  0.1659500781465646  0.4996730552643284
 -0.0014410821202310  0.3334171248775538  0.4996399439600227
 -0.0001686107784007  0.1674506860553070  0.6662234030668506
  0.1664652434070119  0.1674424502848617  0.1664542930488728
  0.3329653562912376  0.3338883277506950  0.1667412535878401
  0.4991568594038187  0.5001436901796475  0.1675047155896836
  0.6658464063254191  0.6667979328859123  0.1675184406071565
  0.8327233051193432  0.8336308993635040  0.1666289968453489
 -0.0004150867917170  0.0005567931159085  0.1663298402380249
  0.3338587253167346  0.1675823146367612  0.3338339657930376
  0.5009115685634669  0.3311531330875819  0.3300352854965109
  0.6651692604036507  0.4996059474059601  0.3341588685270548
  0.8318350886425465  0.6668133960097647  0.3334602501412736
 -0.0008861775510203  0.8339035980732903  0.3330988032146955
  0.5005622754965064  0.1558198269561966  0.4987541350584866
  0.6691749135783128  0.3311523905015732  0.4983764852420599
  0.8318340706453481  0.5001301751416165  0.5001604342134650
 -0.0029805594084530  0.6681924340041571  0.4997721439652323
  0.6654525917798771  0.1675649383104255  0.6654569572419297
  0.8325039158591281  0.3339050776020649  0.6663488804644087
  0.9985607594531990  0.5006400582929530  0.6668614958149829
  0.8328443867504666  0.1673907091428894  0.8328380988675013
 -0.0001724889592029  0.3340112488956768  0.8328298526137821
 -0.0002322958314115  0.1672665153631736 -0.0004613485344844
  0.1650063233040252  0.5005990000559448  0.1652943359830839
  0.3323755962623096  0.6676301296438645  0.1661422212875056
  0.4993496697749644  0.8334001323398547  0.1668354654554241
  0.6662354267173403  0.0000423710144074  0.1664196513455732
  0.1666523425772531  0.3347980515747978  0.3338642126915958
  0.3302276833976924  0.5018627198229472  0.3301405290518244
  0.4986321051920415  0.6661302522674720  0.3341643586754715
  0.6658487082468887  0.8327448703940247  0.3334535480481489
  0.8329240192905706  0.0000631697237324  0.3331209284030007
  0.1676487411071705  0.1686003444071615  0.4997432429356919
  0.3397626540236409  0.3405428303817980  0.4999529061666947
  0.6651587802378928  0.6660911779568823  0.5006775749626600
  0.8324493575670285  0.8333840203332591  0.4999690218721732
 -0.0001950732715914  0.0007778690862425  0.4997389759566526
  0.3338400966590846  0.1673111201435011  0.6654698212386214
  0.4993974134741558  0.3404979224986802  0.6597352372324263
  0.6691803619435857  0.5018481487845033  0.6691165514744862
  0.8331618043502309  0.6675790077357456  0.6669156257208082
 -0.0002835393125098  0.8340024426703577  0.6664447302723314
  0.4995761858570315  0.1685501291707349  0.8317096586097168
  0.6654641485271906  0.3347574799948976  0.8326916078914985
  0.8340438215859288  0.5005752510131475  0.8343124542014243
 -0.0000841118812644  0.6671879118853975  0.8331051648886079
  0.6662598294709613  0.1671339357877505 -0.0005764961792806
  0.8330410999265505  0.3337688041944649 -0.0004010450670007
 -0.0002080613238233  0.5005146496923246 -0.0004790002522248
  0.1659558459449081  0.8339474931404377  0.1663643693201005
  0.3328480308087140  0.0006917977321894  0.1662489067905793
  0.1653639412282246  0.6666970043772250  0.3336172867559846
  0.3324006904475862  0.8341662954036403  0.3326764055799675
  0.4995201924085447  0.9979220371378843  0.3320531140105803
  0.1549457024511783  0.5014946422952083  0.4987906018385095
  0.3302156833687216  0.6701836740715814  0.4984159945646590
  0.4991587400289084  0.8327740926808650  0.5001447859734911
  0.6672282348811711 -0.0020723147873714  0.4997841071795284
  0.1663987135416855  0.3348030704458112  0.6654563306116529
  0.3397091673323808  0.5003284751399465  0.6597166883611423
  0.5008918669358767  0.6702140971374470  0.6690864761158661
  0.6666203947840618  0.8341385299957679  0.6669142907279344
  0.8330249389480685  0.0006781443715608  0.6664556388748191
  0.1667972791768714  0.1677895799372880  0.8324687267705241
  0.3338529288354937  0.3347900092204832  0.8329614063547224
  0.5005535929538024  0.5014739327354328  0.8444321757208618
  0.6656813930219559  0.6666626645581574  0.8339533352129715
  0.8329595090591093  0.8338875551534666  0.8333418293513964
 -0.0002563269488973  0.0007307833584340  0.8329739206056269
  0.3330600811816157  0.1674224352828454 -0.0005560571600365
  0.4996831439971419  0.3333862375327675  0.0007640226601873
  0.6672375094800838  0.5004531674606084  0.0023335474180787
  0.8329232436763321  0.6671476186346957  0.0001984897537753
  0.9995847470727197  0.8339329375685000 -0.0002848611896655
  0.1662126387127187  0.0008891022074669  0.3330523140565475
  0.1650016108484897  0.8350315371169658  0.4996854848501964
  0.3324384666330505 -0.0005010459888336  0.4996439537590182
  0.1666303855123870  0.6664130560167135  0.6654551685592229
  0.3329411089112667  0.8335069369017317  0.6663886057384002
  0.4996885980916430 -0.0004882914533429  0.6668688947575578
  0.1676418502481709  0.5005147700033233  0.8316905724165974
  0.3338480249380169  0.6664200551604319  0.8326801566358271
  0.4996383546969627  0.8350134830736564  0.8343239029543716
  0.6662602401073094  0.0008516240407475  0.8331028713131605
  0.1664546885654307  0.3340412089209964 -0.0005501361921092
  0.3324421611948717  0.5006587425567117  0.0007646708289619
  0.4995200540334615  0.6682070745124453  0.0023235954441379
  0.6662353897404086  0.8338457044196401  0.0002039029674155
  0.8329904449788802  0.0005134627654097 -0.0002620520003160
  0.1664455292733004  0.0008377301807170  0.6662326101615884
  0.1664486220800938  0.8338274567091462  0.8328379935786353
  0.3330511396950867  0.0008329807143073  0.8328411175056937
  0.1662000579261649  0.6672254622303608 -0.0005951160886950
  0.3328336767646582  0.8340138851757646 -0.0004356468150432
  0.4995794758169162  0.0007333844073852 -0.0004949420956916
  0.1663007361995449  0.0007511812962813 -0.0004656262061134
 
  0.00000000E+00  0.00000000E+00  0.00000000E+00
  0.00000000E+00  0.00000000E+00  0.00000000E+00
  0.00000000E+00  0.00000000E+00  0.00000000E+00
  0.00000000E+00  0.00000000E+00  0.00000000E+00
  0.00000000E+00  0.00000000E+00  0.00000000E+00
  0.00000000E+00  0.00000000E+00  0.00000000E+00
  0.00000000E+00  0.00000000E+00  0.00000000E+00
  0.00000000E+00  0.00000000E+00  0.00000000E+00
  0.00000000E+00  0.00000000E+00  0.00000000E+00
  0.00000000E+00  0.00000000E+00  0.00000000E+00
  0.00000000E+00  0.00000000E+00  0.00000000E+00
  0.00000000E+00  0.00000000E+00  0.00000000E+00
  0.00000000E+00  0.00000000E+00  0.00000000E+00
  0.00000000E+00  0.00000000E+00  0.00000000E+00
  0.00000000E+00  0.00000000E+00  0.00000000E+00
  0.00000000E+00  0.00000000E+00  0.00000000E+00
  0.00000000E+00  0.00000000E+00  0.00000000E+00
  0.00000000E+00  0.00000000E+00  0.00000000E+00
  0.00000000E+00  0.00000000E+00  0.00000000E+00
  0.00000000E+00  0.00000000E+00  0.00000000E+00
  0.00000000E+00  0.00000000E+00  0.00000000E+00
  0.00000000E+00  0.00000000E+00  0.00000000E+00
  0.00000000E+00  0.00000000E+00  0.00000000E+00
  0.00000000E+00  0.00000000E+00  0.00000000E+00
  0.00000000E+00  0.00000000E+00  0.00000000E+00
  0.00000000E+00  0.00000000E+00  0.00000000E+00
  0.00000000E+00  0.00000000E+00  0.00000000E+00
  0.00000000E+00  0.00000000E+00  0.00000000E+00
  0.00000000E+00  0.00000000E+00  0.00000000E+00
  0.00000000E+00  0.00000000E+00  0.00000000E+00
  0.00000000E+00  0.00000000E+00  0.00000000E+00
  0.00000000E+00  0.00000000E+00  0.00000000E+00
  0.00000000E+00  0.00000000E+00  0.00000000E+00
  0.00000000E+00  0.00000000E+00  0.00000000E+00
  0.00000000E+00  0.00000000E+00  0.00000000E+00
  0.00000000E+00  0.00000000E+00  0.00000000E+00
  0.00000000E+00  0.00000000E+00  0.00000000E+00
  0.00000000E+00  0.00000000E+00  0.00000000E+00
  0.00000000E+00  0.00000000E+00  0.00000000E+00
  0.00000000E+00  0.00000000E+00  0.00000000E+00
  0.00000000E+00  0.00000000E+00  0.00000000E+00
  0.00000000E+00  0.00000000E+00  0.00000000E+00
  0.00000000E+00  0.00000000E+00  0.00000000E+00
  0.00000000E+00  0.00000000E+00  0.00000000E+00
  0.00000000E+00  0.00000000E+00  0.00000000E+00
  0.00000000E+00  0.00000000E+00  0.00000000E+00
  0.00000000E+00  0.00000000E+00  0.00000000E+00
  0.00000000E+00  0.00000000E+00  0.00000000E+00
  0.00000000E+00  0.00000000E+00  0.00000000E+00
  0.00000000E+00  0.00000000E+00  0.00000000E+00
  0.00000000E+00  0.00000000E+00  0.00000000E+00
  0.00000000E+00  0.00000000E+00  0.00000000E+00
  0.00000000E+00  0.00000000E+00  0.00000000E+00
  0.00000000E+00  0.00000000E+00  0.00000000E+00
  0.00000000E+00  0.00000000E+00  0.00000000E+00
  0.00000000E+00  0.00000000E+00  0.00000000E+00
  0.00000000E+00  0.00000000E+00  0.00000000E+00
  0.00000000E+00  0.00000000E+00  0.00000000E+00
  0.00000000E+00  0.00000000E+00  0.00000000E+00
  0.00000000E+00  0.00000000E+00  0.00000000E+00
  0.00000000E+00  0.00000000E+00  0.00000000E+00
  0.00000000E+00  0.00000000E+00  0.00000000E+00
  0.00000000E+00  0.00000000E+00  0.00000000E+00
  0.00000000E+00  0.00000000E+00  0.00000000E+00
  0.00000000E+00  0.00000000E+00  0.00000000E+00
  0.00000000E+00  0.00000000E+00  0.00000000E+00
  0.00000000E+00  0.00000000E+00  0.00000000E+00
  0.00000000E+00  0.00000000E+00  0.00000000E+00
  0.00000000E+00  0.00000000E+00  0.00000000E+00
  0.00000000E+00  0.00000000E+00  0.00000000E+00
  0.00000000E+00  0.00000000E+00  0.00000000E+00
  0.00000000E+00  0.00000000E+00  0.00000000E+00
  0.00000000E+00  0.00000000E+00  0.00000000E+00
  0.00000000E+00  0.00000000E+00  0.00000000E+00
  0.00000000E+00  0.00000000E+00  0.00000000E+00
  0.00000000E+00  0.00000000E+00  0.00000000E+00
  0.00000000E+00  0.00000000E+00  0.00000000E+00
  0.00000000E+00  0.00000000E+00  0.00000000E+00
  0.00000000E+00  0.00000000E+00  0.00000000E+00
  0.00000000E+00  0.00000000E+00  0.00000000E+00
  0.00000000E+00  0.00000000E+00  0.00000000E+00
  0.00000000E+00  0.00000000E+00  0.00000000E+00
  0.00000000E+00  0.00000000E+00  0.00000000E+00
  0.00000000E+00  0.00000000E+00  0.00000000E+00
  0.00000000E+00  0.00000000E+00  0.00000000E+00
  0.00000000E+00  0.00000000E+00  0.00000000E+00
  0.00000000E+00  0.00000000E+00  0.00000000E+00
  0.00000000E+00  0.00000000E+00  0.00000000E+00
  0.00000000E+00  0.00000000E+00  0.00000000E+00
  0.00000000E+00  0.00000000E+00  0.00000000E+00
  0.00000000E+00  0.00000000E+00  0.00000000E+00
  0.00000000E+00  0.00000000E+00  0.00000000E+00
  0.00000000E+00  0.00000000E+00  0.00000000E+00
  0.00000000E+00  0.00000000E+00  0.00000000E+00
  0.00000000E+00  0.00000000E+00  0.00000000E+00
  0.00000000E+00  0.00000000E+00  0.00000000E+00
  0.00000000E+00  0.00000000E+00  0.00000000E+00
  0.00000000E+00  0.00000000E+00  0.00000000E+00
  0.00000000E+00  0.00000000E+00  0.00000000E+00
  0.00000000E+00  0.00000000E+00  0.00000000E+00
  0.00000000E+00  0.00000000E+00  0.00000000E+00
  0.00000000E+00  0.00000000E+00  0.00000000E+00
  0.00000000E+00  0.00000000E+00  0.00000000E+00
  0.00000000E+00  0.00000000E+00  0.00000000E+00
  0.00000000E+00  0.00000000E+00  0.00000000E+00
  0.00000000E+00  0.00000000E+00  0.00000000E+00
  0.00000000E+00  0.00000000E+00  0.00000000E+00
  0.00000000E+00  0.00000000E+00  0.00000000E+00
  0.00000000E+00  0.00000000E+00  0.00000000E+00
  0.00000000E+00  0.00000000E+00  0.00000000E+00
  0.00000000E+00  0.00000000E+00  0.00000000E+00
  0.00000000E+00  0.00000000E+00  0.00000000E+00
  0.00000000E+00  0.00000000E+00  0.00000000E+00
  0.00000000E+00  0.00000000E+00  0.00000000E+00
  0.00000000E+00  0.00000000E+00  0.00000000E+00
  0.00000000E+00  0.00000000E+00  0.00000000E+00
  0.00000000E+00  0.00000000E+00  0.00000000E+00
  0.00000000E+00  0.00000000E+00  0.00000000E+00
  0.00000000E+00  0.00000000E+00  0.00000000E+00
  0.00000000E+00  0.00000000E+00  0.00000000E+00
  0.00000000E+00  0.00000000E+00  0.00000000E+00
  0.00000000E+00  0.00000000E+00  0.00000000E+00
  0.00000000E+00  0.00000000E+00  0.00000000E+00
  0.00000000E+00  0.00000000E+00  0.00000000E+00
  0.00000000E+00  0.00000000E+00  0.00000000E+00
  0.00000000E+00  0.00000000E+00  0.00000000E+00
  0.00000000E+00  0.00000000E+00  0.00000000E+00
  0.00000000E+00  0.00000000E+00  0.00000000E+00
  0.00000000E+00  0.00000000E+00  0.00000000E+00
  0.00000000E+00  0.00000000E+00  0.00000000E+00
  0.00000000E+00  0.00000000E+00  0.00000000E+00
  0.00000000E+00  0.00000000E+00  0.00000000E+00
  0.00000000E+00  0.00000000E+00  0.00000000E+00
  0.00000000E+00  0.00000000E+00  0.00000000E+00
  0.00000000E+00  0.00000000E+00  0.00000000E+00
  0.00000000E+00  0.00000000E+00  0.00000000E+00
  0.00000000E+00  0.00000000E+00  0.00000000E+00
  0.00000000E+00  0.00000000E+00  0.00000000E+00
  0.00000000E+00  0.00000000E+00  0.00000000E+00
  0.00000000E+00  0.00000000E+00  0.00000000E+00
  0.00000000E+00  0.00000000E+00  0.00000000E+00
  0.00000000E+00  0.00000000E+00  0.00000000E+00
  0.00000000E+00  0.00000000E+00  0.00000000E+00
  0.00000000E+00  0.00000000E+00  0.00000000E+00
  0.00000000E+00  0.00000000E+00  0.00000000E+00
  0.00000000E+00  0.00000000E+00  0.00000000E+00
  0.00000000E+00  0.00000000E+00  0.00000000E+00
  0.00000000E+00  0.00000000E+00  0.00000000E+00
  0.00000000E+00  0.00000000E+00  0.00000000E+00
  0.00000000E+00  0.00000000E+00  0.00000000E+00
  0.00000000E+00  0.00000000E+00  0.00000000E+00
  0.00000000E+00  0.00000000E+00  0.00000000E+00
  0.00000000E+00  0.00000000E+00  0.00000000E+00
  0.00000000E+00  0.00000000E+00  0.00000000E+00
  0.00000000E+00  0.00000000E+00  0.00000000E+00
  0.00000000E+00  0.00000000E+00  0.00000000E+00
  0.00000000E+00  0.00000000E+00  0.00000000E+00
  0.00000000E+00  0.00000000E+00  0.00000000E+00
  0.00000000E+00  0.00000000E+00  0.00000000E+00
  0.00000000E+00  0.00000000E+00  0.00000000E+00
  0.00000000E+00  0.00000000E+00  0.00000000E+00
  0.00000000E+00  0.00000000E+00  0.00000000E+00
  0.00000000E+00  0.00000000E+00  0.00000000E+00
  0.00000000E+00  0.00000000E+00  0.00000000E+00
  0.00000000E+00  0.00000000E+00  0.00000000E+00
  0.00000000E+00  0.00000000E+00  0.00000000E+00
  0.00000000E+00  0.00000000E+00  0.00000000E+00
  0.00000000E+00  0.00000000E+00  0.00000000E+00
  0.00000000E+00  0.00000000E+00  0.00000000E+00
  0.00000000E+00  0.00000000E+00  0.00000000E+00
  0.00000000E+00  0.00000000E+00  0.00000000E+00
  0.00000000E+00  0.00000000E+00  0.00000000E+00
  0.00000000E+00  0.00000000E+00  0.00000000E+00
  0.00000000E+00  0.00000000E+00  0.00000000E+00
  0.00000000E+00  0.00000000E+00  0.00000000E+00
  0.00000000E+00  0.00000000E+00  0.00000000E+00
  0.00000000E+00  0.00000000E+00  0.00000000E+00
  0.00000000E+00  0.00000000E+00  0.00000000E+00
  0.00000000E+00  0.00000000E+00  0.00000000E+00
  0.00000000E+00  0.00000000E+00  0.00000000E+00
  0.00000000E+00  0.00000000E+00  0.00000000E+00
  0.00000000E+00  0.00000000E+00  0.00000000E+00
  0.00000000E+00  0.00000000E+00  0.00000000E+00
  0.00000000E+00  0.00000000E+00  0.00000000E+00
  0.00000000E+00  0.00000000E+00  0.00000000E+00
  0.00000000E+00  0.00000000E+00  0.00000000E+00
  0.00000000E+00  0.00000000E+00  0.00000000E+00
  0.00000000E+00  0.00000000E+00  0.00000000E+00
  0.00000000E+00  0.00000000E+00  0.00000000E+00
  0.00000000E+00  0.00000000E+00  0.00000000E+00
  0.00000000E+00  0.00000000E+00  0.00000000E+00
  0.00000000E+00  0.00000000E+00  0.00000000E+00
  0.00000000E+00  0.00000000E+00  0.00000000E+00
  0.00000000E+00  0.00000000E+00  0.00000000E+00
  0.00000000E+00  0.00000000E+00  0.00000000E+00
  0.00000000E+00  0.00000000E+00  0.00000000E+00
  0.00000000E+00  0.00000000E+00  0.00000000E+00
  0.00000000E+00  0.00000000E+00  0.00000000E+00
  0.00000000E+00  0.00000000E+00  0.00000000E+00
  0.00000000E+00  0.00000000E+00  0.00000000E+00
  0.00000000E+00  0.00000000E+00  0.00000000E+00
  0.00000000E+00  0.00000000E+00  0.00000000E+00
  0.00000000E+00  0.00000000E+00  0.00000000E+00
  0.00000000E+00  0.00000000E+00  0.00000000E+00
  0.00000000E+00  0.00000000E+00  0.00000000E+00
  0.00000000E+00  0.00000000E+00  0.00000000E+00
  0.00000000E+00  0.00000000E+00  0.00000000E+00
  0.00000000E+00  0.00000000E+00  0.00000000E+00
  0.00000000E+00  0.00000000E+00  0.00000000E+00
  0.00000000E+00  0.00000000E+00  0.00000000E+00
  0.00000000E+00  0.00000000E+00  0.00000000E+00
  0.00000000E+00  0.00000000E+00  0.00000000E+00
  0.00000000E+00  0.00000000E+00  0.00000000E+00
  0.00000000E+00  0.00000000E+00  0.00000000E+00
  0.00000000E+00  0.00000000E+00  0.00000000E+00
  0.00000000E+00  0.00000000E+00  0.00000000E+00
