60.0% N(Distort)=4 ~[0.5,0.5,0.5]
1.0
  12.5998379999999983    0.0000000000000004    0.0000000000000004
   0.0000000000000004   12.5998379999999983   -0.0000000000000004
  -0.0000000000000004   -0.0000000000000004   12.5998379999999983
Mg O
109 107
direct
   0.6719359826099596    0.0164400566803896   -0.0025562813959436 Mg
   0.8333333333333333    0.1666666666666667    1.0000000000000000 Mg
   0.8356993213461827    1.0223522002184962    0.1641323011046227 Mg
   0.3224763702131981    0.0044599364366762   -0.0124259056236310 Mg
   0.4683882807349408    0.1945445291202825   -0.0305159411567925 Mg
   0.6700452871194704    0.2991563222813016   -0.0172120397832292 Mg
   0.8039052536122827    0.5075978931896779    1.0060087239430704 Mg
   0.4829288323089322    0.0313671915667327    0.1627357747048522 Mg
   0.6723395165628649    0.2009790715134789    0.1571108695585947 Mg
   0.8347637125984989    0.3324187995100729    0.1714409922644628 Mg
   0.6766372306940236   -0.0128234283711014    0.3424678589007412 Mg
   0.8449504921125517    0.1559476042385287    0.3796415419712277 Mg
   0.8423520676721215    1.0151203407271694    0.5092054547290127 Mg
  -0.0027962454393849   -0.0023682104945691    0.0159662326543710 Mg
   0.2115511668518169    0.1891224122695273   -0.0110640819935338 Mg
   0.3291996903281576    0.3613403119336059    0.0131582565662113 Mg
   0.5120701899961901    0.5044097457850102   -0.0045898384170643 Mg
   0.6722423426474025    0.6724087416898055   -0.0227339069552050 Mg
   0.8094496870485065    0.8366028395383430   -0.0141504624486152 Mg
   0.1913640818201496    0.0058461926644067    0.1838108158935640 Mg
   0.3098667582926829    0.1622762257671847    0.1561773767430149 Mg
   0.5098566447279449    0.3298235380293044    0.1698020790849508 Mg
   0.6799415796764159    0.5191969994624276    0.1612563257925349 Mg
   0.8359758142204579    0.6593990155965799    0.1576369393328342 Mg
   0.3671367474996258   -0.0311127617718470    0.3243357688191318 Mg
   0.5003911251656351    0.1576297327320849    0.3312440063314356 Mg
   0.6573867478205870    0.3496879899589315    0.3379838776352068 Mg
   0.8456760574120507    0.4854508861719163    0.3494441622682326 Mg
   0.4951202763544826    0.0114054336476135    0.5186601953182997 Mg
   0.6780294682825901    0.1779530986721767    0.5168658791286422 Mg
   0.8191218031596658    0.3725436178401421    0.4977299907817587 Mg
   0.6409666498414666    0.0177656629900058    0.6689297760177217 Mg
   0.8172927835587880    0.1740492948707341    0.6174871427152389 Mg
   0.8784839648939194    0.0123227649461866    0.8270468390681599 Mg
  -0.0006221245944305    0.3575811427773123    0.9793587814439243 Mg
   0.1427974863034258    0.5083368733981939   -0.0153853308442676 Mg
   0.3484123423598759    0.6647061004399405    0.9743478119763869 Mg
   0.4818761738967288    0.8447518061371125   -0.0337249916440508 Mg
   0.0089041774953727    0.1739470675608565    0.1620472819804018 Mg
   0.1735282385221551    0.3289240223557805    0.1507358880800737 Mg
   0.3443500516766810    0.5014526869581046    0.1493873240364259 Mg
   0.5221438170018553    0.6830582434501733    0.1537581650824335 Mg
   0.6593048681798823    0.8273321500642218    0.1884569779096789 Mg
   0.9894103242769937    1.0131668194236823    0.3241869455802719 Mg
   0.1649878131923578    0.1517465270489513    0.3332697082670257 Mg
   0.3287258663210609    0.3399361742619007    0.3154052749876681 Mg
   0.4948505072564763    0.4752001358018494    0.3521660214418923 Mg
   0.6885258492515932    0.6529492054180199    0.3180708029102851 Mg
   0.8315189147153068    0.8361247205615497    0.3581833508616983 Mg
   0.1627977131139651   -0.0083582524481879    0.4999359433914848 Mg
   0.3178541303556059    0.1519258821303225    0.5105148182356085 Mg
   0.5256824192581284    0.3100078543356449    0.5128684171883463 Mg
   0.6954218678428070    0.5081939660219402    0.5070254423652714 Mg
   0.8280585376644489    0.6766080666131956    0.5139128294613293 Mg
   0.3309987400196521    1.0009471930170812    0.6637574181493471 Mg
   0.4934877021950000    0.1841141165354952    0.6357295849263389 Mg
   0.6667469027881581    0.3411497233403717    0.6798434890652617 Mg
   0.8264356308532532    0.5196496606701174    0.6608120933939005 Mg
   0.5232500281755524    0.0156028032274313    0.8543034433216733 Mg
   0.6722120502873051    0.1849337874483573    0.8526157263142704 Mg
   0.8229438491550215    0.3313603130256699    0.8352042662907091 Mg
   0.0027683949615427    0.6652472889760479    1.0129380501382415 Mg
   0.1411966675259550    0.8272292673427387   -0.0136868893659308 Mg
  -0.0102590880157827    0.4953381839973927    0.1912903764901751 Mg
   0.1230717430920711    0.6392458425092412    0.1724319616650743 Mg
   0.3337076212193747    0.8257068307259796    0.1630689196934600 Mg
   0.0040272788645383    0.3199178631661005    0.3214965177019831 Mg
   0.1572481345659172    0.5036555586784973    0.3170640172944649 Mg
   0.3442452190204243    0.6658576052682840    0.3299936519475004 Mg
   0.4945968614119154    0.8013077353768856    0.3454684233849046 Mg
   0.0006003436027125    0.1471090956815236    0.5052482057548746 Mg
   0.1770254446797317    0.3107197508838010    0.4762866777944623 Mg
   0.3425842473468871    0.4945266258392446    0.5190370087291681 Mg
   0.5043730669442634    0.6804864441140436    0.5081186190958695 Mg
   0.6556864743660876    0.8259274936424681    0.5064825782284219 Mg
   1.0077058063663549    0.9948720992854286    0.6449350032174486 Mg
   0.1537252127980170    0.1478268083915886    0.6796999092716046 Mg
   0.3088291983679486    0.3193718711987754    0.6632714791785791 Mg
   0.5102077341504220    0.5077748583099772    0.6751360731171072 Mg
   0.6478193894352879    0.6815332902026747    0.6613260329708257 Mg
   0.8521187660474147    0.8313736090722320    0.6381299477225523 Mg
   0.1608461812634574    0.0064759893099175    0.8436911613002576 Mg
   0.3230354782391735    0.1543043911161488    0.8242676181520943 Mg
   0.4732866210359489    0.3362430441161610    0.8409187575529611 Mg
   0.6551054495883702    0.5156498833578486    0.8322267617442879 Mg
   0.8537235189728066    0.6646179484204684    0.8368169209867600 Mg
   1.0059614678699418    0.8156244516854080    0.1819008313545410 Mg
   0.0074519717996759    0.6559438595753015    0.3286270229070345 Mg
   0.1475327224292865    0.8427844971308598    0.3297606187847431 Mg
  -0.0420200116929321    0.5284500539097361    0.5234344724991228 Mg
   0.1299202180383666    0.6820154591209627    0.4544328494385573 Mg
   0.3293150973736470    0.8326949177354802    0.5110807348032487 Mg
   0.9909755098879105    0.3671275879226967    0.7003848450590947 Mg
   0.1654055406472193    0.5076963273633550    0.6791551161529389 Mg
   0.3178080172462532    0.6508956676847348    0.6768447686611678 Mg
   0.4967480455736694    0.8334412894139805    0.6707967408663720 Mg
   0.0001078850400639    0.1601864490898419    0.8326512457258352 Mg
   0.1995064681269264    0.3266561355097894    0.8282574894053774 Mg
   0.3407239950818487    0.4666952685200593    0.8197708354065848 Mg
   0.5033202722658692    0.6856569670080050    0.8369779922135828 Mg
   0.6740064678932505    0.8339213751053446    0.8113122095593052 Mg
   1.0176723337128790    0.8167375276404717    0.5237752970294578 Mg
  -0.0217785776046726    0.6852180228484903    0.6879374574144735 Mg
   0.1499928980006520    0.8287663591018429    0.6866375440452226 Mg
   0.0114449484212177    0.4854001670230269    0.8270949564806885 Mg
   0.1423592635481744    0.6620730788097005    0.8352393925421592 Mg
   0.3463049225858567    0.7966322933525093    0.8628399705298319 Mg
   0.0160163951418460    0.8313706633472933    0.8076709253126675 Mg
   0.4873004695706808    0.4840328499103560    0.5027604524510452 Mg
   0.8333333333333333    0.1666666666666667    0.2666700952821776 O
   0.0020404253895990    0.3450720155583897    0.1650705041784216 O
  -0.0056246350522619    0.1794931846246736    0.3139700351914986 O
   0.5041860606065369    0.1993253054226087    0.1507739663672590 O
   0.6372213095661138    0.3375170441804183    0.1788112002185514 O
   0.8207610213461577    0.5071617321497863    0.1737738763893975 O
  -0.0042186338031257    0.6729501685398748    0.1828232721780944 O
   0.6487698876733942    0.1629336566945867    0.3410562541556773 O
   0.8173914475266320    0.3333977157491552    0.3243846146636826 O
   0.0115919707035552    0.5318561390425506    0.3446806462588534 O
   0.8657491114412665    0.1722423426356611    0.5064675989826768 O
   0.0156638481274031    0.3230006396128472    0.4783973641760015 O
  -0.0101266516838537    0.1647208547193622    0.6864030073082916 O
   0.1767217586307809    0.1530807454538222    0.1825973879089970 O
   0.3285947410992047    0.3255989951820240    0.1819333700106366 O
   0.4952456610675426    0.5113246189784558    0.1675686433757002 O
   0.6514352406976649    0.6567997417512463    0.1692884199852790 O
   0.8450919291689865    0.8235734541196932    0.1565569688743723 O
  -0.0172129789494219   -0.0065738774866030    0.1460236411718872 O
   0.3223531512658428    0.1636596521340807    0.3382039840800850 O
   0.5225380670919041    0.3068341338363628    0.3542456402100776 O
   0.6530338904245199    0.5200359064378841    0.3362481955853795 O
   0.8208981006476268    0.6405889043080027    0.2962443145129295 O
   0.0122084314754913    0.8165816178094095    0.3571215732680984 O
   0.4893941962943649    0.1726626676072980    0.5004500655934732 O
   0.6921258886134329    0.3374862900257655    0.5207813318443081 O
   0.8264070084032216    0.4966791279993999    0.5172367408186405 O
   0.0158148480195757    0.6659171034763655    0.4943667460719305 O
   0.6749136796356366    0.1513442202213501    0.6765744230014720 O
   0.8487480930264950    0.3362946048409789    0.6559148626036417 O
  -0.0103256941142880    0.5221980900919720    0.6843172647566003 O
   0.8333333333333333    0.1666666666666667    0.7333299047178224 O
  -0.0083813921622614    0.3195935308580258    0.8218190482710434 O
   0.1000034286155108    0.1666666666666667   -0.0000000000000000 O
   0.1689622260891971    0.5016693471081790    0.1829201027360230 O
   0.3105404591792156    0.6525413195215235    0.1699886921721184 O
   0.4870863318142651    0.8541188165866371    0.1501599299566980 O
   0.6852233920640448    0.0243822891929152    0.1581251738114482 O
   0.1820068522594412    0.3213671127810264    0.3295392596656526 O
   0.3121597827598142    0.5098128805756714    0.3340580904388188 O
   0.5196420397563644    0.6632491462878176    0.3286533161759810 O
   0.6542271244116827    0.8416173301693628    0.3325587347937063 O
   0.8264080196258959   -0.0172352333296786    0.3522444434322709 O
   0.1800324217724856    0.1401020810446411    0.5146466077973779 O
   0.3346123960417942    0.3283564784147203    0.4896478034070002 O
   0.6735671203511213    0.6822481454361830    0.4761319891209126 O
   0.8011764561233818    0.8378416413594744    0.4899105733654564 O
  -0.0107048656485350   -0.0130845632640828    0.4953206385368494 O
   0.3409656789077165    0.1617831692049343    0.6482538660757400 O
   0.5263969867035161    0.3541697422470605    0.6865147381406256 O
   0.6427997078312127    0.4868105815585579    0.6721020040850841 O
   0.8443148404539006    0.6853042101937310    0.6864702966118821 O
   0.0100885994873329    0.8305140218412980    0.6755904663147149 O
   0.5201061807311658    0.1488272485775935    0.8617194359392590 O
   0.6429115784176286    0.3474025582164250    0.8613350508764290 O
   0.8291405074732155    0.5096244478375274    0.8469707027709429 O
  -0.0141873119839330    0.6488285677915333    0.8510327545946397 O
   0.5666632380511559    0.1666666666666667    0.0000000000000000 O
   0.8335229691490150    0.3507957774603399   -0.0034250879108816 O
  -0.0029163447752459    0.5068706422641719   -0.0158743808329761 O
   0.1683618605427759    0.8310466343880721    0.1562452822234167 O
   0.3359777950048251   -0.0031704822887821    0.1721846182091840 O
   0.1737169025332247    0.6844258323941109    0.3280671834305223 O
   0.3571215452390702    0.8489943827048385    0.3006185861728869 O
   0.5221951651106284   -0.0211313471480783    0.3401364607914447 O
   0.1550996118529234    0.4598420459449610    0.4870392187769118 O
   0.3361709399146442    0.6323754596264021    0.4843841557337178 O
   0.5049830274766419    0.8198294608341026    0.4876545994508815 O
   0.6756241419702104   -0.0050589099588209    0.5082121222953234 O
   0.1651609449261119    0.3374617488292050    0.6583167429854860 O
   0.3159760023226253    0.4890868978876105    0.6596994758973976 O
   0.5194057246278584    0.6680553368152576    0.6838706699236538 O
   0.6737358304293594    0.8294398166331177    0.6539528940405062 O
   0.7865871387377105   -0.0014428640924527    0.6947772368949042 O
   0.1930880694871833    0.1593073295882770    0.8388756100974464 O
   0.3436776722123026    0.3346964762245578    0.8303398996148720 O
   0.5112947449409226    0.4950887955147842    0.8190471845961537 O
   0.6760534238896881    0.6883258331844011    0.8250936128520553 O
   0.8237128650605198    0.8665584120724505    0.8418370286309356 O
   0.0039854195399019    0.0102282768651369    0.8464376602657053 O
   0.3336449105801387    0.1553259205554812    0.0134519763164061 O
   0.5093174808474765    0.3259572561232143    0.0081648366676166 O
   0.6481219139772187    0.4743664207442690    0.0038049940874411 O
   0.8530690123698255    0.6535952955480943    0.0110581870366582 O
  -0.0050725374105048    0.8466603000307827    0.0090729065033048 O
   0.1603059778765049   -0.0125736373138433    0.3544646346681564 O
   0.1505695128976376    0.8264036071489934    0.5256434531508705 O
   0.3547124379736709    0.0071185581883316    0.4764041529423819 O
   0.1346202288101797    0.6641185494318270    0.6665903056467758 O
   0.3331087187723039    0.8401013754115286    0.6792150154001746 O
   0.4936556511852885    0.0008812326455726    0.6394067271759734 O
   0.1494129484371174    0.5188000658262459    0.8318984838898872 O
   0.3424911161686656    0.6552860321639434    0.8442827914666280 O
   0.5189674778194410    0.8420546333384060    0.8081570604367131 O
   0.6753633557232253   -0.0073201004304053    0.8414023789890868 O
   0.1591100742188888    0.3467225182819092   -0.0162433671684828 O
   0.3506215703001297    0.4868884598712042   -0.0213111367057836 O
   0.4952820507728514    0.6628708634938517    0.0059584647295678 O
   0.6310085550812689    0.8130230723887995   -0.0296054888240260 O
   0.8154628285204050   -0.0245565131313315    0.0069221773964745 O
   0.1763757431374322    0.0059737623613841    0.6549766667566297 O
   0.1588803933292579    0.8475499640995175    0.8308327135995163 O
   0.3287817871875879   -0.0234628491404358    0.8184178164906755 O
   0.1523511090462792    0.6834946399653354   -0.0023578338086344 O
   0.3285585039624798    0.8476968054896128   -0.0270503697852315 O
   0.4885435624099406   -0.0080707601185973    0.0177836704809980 O
   0.1951589246398715    0.0091562132964105   -0.0142941081051429 O
