KPOINTS from doped, with reciprocal_density = 185/Å⁻³
0
Gamma
9 9 3
