Mg109 O107                              
   1.00000000000000     
    12.5998379999999983    0.0000000000000004    0.0000000000000004
     0.0000000000000004   12.5998379999999983   -0.0000000000000004
    -0.0000000000000004   -0.0000000000000004   12.5998379999999983
   Mg   O 
   109   107
Direct
  0.6685370129244936  0.9982893699441423  0.9976930660403719
  0.8349464258552781  0.1645601431477949  0.9978859668299437
  0.8349240548918501  0.9984988344612655  0.1639492699682079
  0.3337933012591665  0.9983681084952389  0.9977399509122757
  0.5011585880719230  0.1634246863404246  0.9991367320139601
  0.6687547911765580  0.3307220049623554  0.9995376304357689
  0.8360734909610480  0.4983357493400131  0.9991464777948740
  0.5011489075368883  0.9997389058564955  0.1628343193279142
  0.6686000132787930  0.1647854643432718  0.1641922188163726
  0.8347102444403094  0.3308890349402202  0.1641940216954874
  0.6687460038926545  0.0001397681285329  0.3301419011482939
  0.8346970888500632  0.1647826613715851  0.3303170140782371
  0.8360700467663009  0.9997324874245351  0.4977604850340147
  0.0011798850884771  0.9983229134464091  0.9977137839389989
  0.1673827161580154  0.1646536636619687  0.9976510088960198
  0.3334372491465301  0.3308799797122772  0.9991358823998303
  0.5013411469710168  0.4981480534833653  0.0025457570804278
  0.6686289824786240  0.6660598686725334  0.9991532201538735
  0.8348512793203293  0.8321231772784694  0.9976391617061648
  0.1673835154542302  0.9982659455735007  0.1640374478255332
  0.3336301731191864  0.1642680130038169  0.1636490482623504
  0.5013196794892547  0.3295506435379801  0.1625106240757927
  0.6699419016670964  0.4981990799532929  0.1625030241045077
  0.8352222985283038  0.6658837769999589  0.1636558434225724
  0.3334363341069347  0.9997440617052458  0.3302918439778468
  0.5013151595127026  0.1631079312253489  0.3289436117795485
  0.6684739921468636  0.3310226103874869  0.3304490983985436
  0.8363361053876152  0.4982015748709828  0.3289391108180278
  0.5013356515077364  0.0031501386146087  0.4975741895644442
  0.6699440404282528  0.1631217297796589  0.4976278159800330
  0.8363389862841791  0.3295372678527131  0.4976345598207069
  0.6686171226052968  0.9997653221547722  0.6654594670562716
  0.8352485447546737  0.1642528877641050  0.6652914927032672
  0.8348614234880585  0.9982525209120516  0.8315158302654132
  0.0012143547480501  0.3309728556703644  0.9977006065075462
  0.1667471914270456  0.4982656890989002  0.9981813932092266
  0.3338985849833809  0.6656215963823842  0.9991905263827554
  0.5012498332141370  0.8327623426601820  0.9981998851729885
  0.0010155415313293  0.1645711381434633  0.1639705160349351
  0.1668386599852184  0.3308174533929226  0.1636550477546082
  0.3323079391433335  0.4981134273493754  0.1620131575449543
  0.5013965489893147  0.6672090868123857  0.1620477483831462
  0.6686817965419098  0.8326605073815951  0.1636630405019774
  0.0011934514652556  0.9983000039673912  0.3303634936345692
  0.1668364426638078  0.1642746020376979  0.3301896055630340
  0.3341604506411828  0.3284247102211079  0.3278350834451108
  0.5023100183539279  0.4972149076397381  0.3142231900732334
  0.6710333729109774  0.6653837437936775  0.3278704239748572
  0.8352239734550131  0.8326687899990955  0.3301809133987146
  0.1667359865653536  0.9987951006771382  0.4976330150261289
  0.3322952004825345  0.1626316644562549  0.4974973142016534
  0.5023039625349196  0.3148286565018457  0.4966247558970007
  0.6846240173518131  0.4972424322908888  0.4966546982968569
  0.8368447608986799  0.6672176770133073  0.4974997768720505
  0.3338934058441084  0.9997706322045670  0.6649629443453062
  0.5013878324270706  0.1626465994528303  0.6666075970474743
  0.6710544119000179  0.3284863518926329  0.6648178255167366
  0.8368511054272245  0.4981198009311513  0.6666305884431101
  0.5012529947731941  0.9988069229828960  0.8321416453615706
  0.6687027622940683  0.1642630150443734  0.8320576018528431
  0.8352612921281021  0.3307861418285272  0.8320727814752893
  0.0011314491191892  0.6657165666884142  0.9977425201670435
  0.1674840122778517  0.8320318871259820  0.9977112142375959
  0.9997257986526537  0.4983607925696523  0.1628125289177389
  0.1672074877732790  0.6658854200373916  0.1636926211388922
  0.3336378905091626  0.8323030626990374  0.1637101554117614
  0.9993186556556494  0.3307555225078410  0.3301474735465787
  0.1579361518557210  0.4986978037131107  0.3245611426316185
  0.3342260795711059  0.6652720018419374  0.3293323590115937
  0.5008311170717501  0.8414502598999909  0.3246598039141134
  0.9997341550316519  0.1634090170913556  0.4977608911032683
  0.1579274810766050  0.3251716999654294  0.4980907750831832
  0.2955307510328590  0.4825093315299632  0.4819044359924339
  0.5169011073026019  0.7037002611828765  0.4821975926362578
  0.6742907710853344  0.8414620212062569  0.4980718429944285
  0.0011461403351530  0.9983519609999091  0.6651027739349982
  0.1672146130430677  0.1642834630457353  0.6652675768385629
  0.3342264886325019  0.3299469806078364  0.6646690834102188
  0.5169266892601727  0.4828523842231435  0.7030751678903164
  0.6696244282405035  0.6652593872552915  0.6646495504868488
  0.8352169619695623  0.8322882477655765  0.6652558724748993
  0.1674906279500962  0.9983254051852878  0.8314060551004357
  0.3336349644306220  0.1642985050370419  0.8316710820262035
  0.5008285556453526  0.3252784538751514  0.8408381647161656
  0.6743068631323903  0.4986675805247595  0.8408507249418454
  0.8352142606672817  0.6658732248145979  0.8316787062734523
  0.0012235005146699  0.8321327723112785  0.1640279013977585
 -0.0002774741999489  0.6660757564252293  0.3302786534081653
  0.1674748938223236  0.8320171670287955  0.3305228328993480
  0.9962735799023286  0.4981633691296588  0.4975843422139468
  0.1608086400420275  0.6666579072080777  0.4973822586054337
  0.3328334252734311  0.8386482993706909  0.4973764408283837
 -0.0002677372505708  0.3308761814677637  0.6654802315752444
  0.1608109635671256  0.4979919544708242  0.6660554653674803
  0.3290247927833348  0.6703962742554718  0.6697594533329333
  0.5015054392710493  0.8387506137536357  0.6660584205007060
  0.0012530630374936  0.1646367549758790  0.8315207418893317
  0.1674820202514553  0.3311341973244971  0.8314113997596374
  0.3328323645324692  0.4980033401240763  0.8380552325592479
  0.5015106019228046  0.6666690483870148  0.8381564825096642
  0.6683711365635102  0.8320181644429446  0.8313951989296355
  0.0006948544961704  0.8327521481877433  0.4976215842585962
 -0.0002716072793523  0.6656114875380271  0.6649884664407969
  0.1665087321438197  0.8329868788099352  0.6647486170838766
  0.0007025942840304  0.4982563694920457  0.8321532351723325
  0.1665203609139161  0.6654030570474699  0.8323812744305524
  0.3341080914667010  0.8329934472370145  0.8323805033723058
  0.0011814870129395  0.8320242899716789  0.8314044852495663
  0.4461636448803731  0.5528633342195932  0.5522176942552920
  0.8342351848503432  0.1652470303718221  0.1646444607333770
  0.0011093907209787  0.3319526528330710  0.1646631243275328
  0.0011009978276724  0.1652610913554360  0.3313470634509502
  0.5009533548748710  0.1658280249462588  0.1652261083935935
  0.6669709473316253  0.3325084229343887  0.1658109907652572
  0.8336282598827365  0.4985293648534164  0.1652196092084584
  0.0013653467640907  0.6648392958104046  0.1646638660370579
  0.6669570223211526  0.1664279155540797  0.3319194593036815
  0.8330410705653674  0.3325076152388339  0.3319225206243049
  0.9985835562480383  0.4985036865466951  0.3299205092605696
  0.8336398458597969  0.1658175683463003  0.4979421018213672
  0.9985770492184942  0.3305291196384004  0.4979003573843055
  0.0013794357607907  0.1652778809152069  0.6642310609281714
  0.1680816262499387  0.1654415994057740  0.1648123611927890
  0.3348395090232674  0.3323149777498685  0.1653249394740332
  0.5009642409917836  0.4985482493198206  0.1616659386966957
  0.6671684121315570  0.6646548351198057  0.1653408122931859
  0.8340531849706643  0.8314273236255355  0.1647892784444524
  0.0013348378280990  0.9981613479921480  0.1644585902236958
  0.3348488688155138  0.1659405999009284  0.3316935640474859
  0.5008646833522536  0.3362440870554994  0.3356514888752912
  0.6632287480962615  0.4986403346503512  0.3356413212944607
  0.8335238517042918  0.6646699674645897  0.3316731151564396
  0.0015082619976881  0.8312454395729904  0.3314629672380361
  0.5009544498961724  0.1622613582382511  0.4979690946804683
  0.6632629014634586  0.3362433513789360  0.4980629868052741
  0.8372042126347518  0.4985448998042737  0.4979446174381612
 -0.0005045833314129  0.6658990850952570  0.4977875569039015
  0.6671681925876360  0.1659665818153612  0.6640406174981346
  0.8335595701910379  0.3322916746228481  0.6640600454430435
 -0.0005062686542192  0.4984307939423129  0.6652969966820949
  0.8340791044819291  0.1654096759250240  0.8308100713141006
  0.0015208357630543  0.3320876108616538  0.8306455360641872
  0.0013457300777992  0.1650816783754252  0.9975455458301261
  0.1677294568195333  0.4984323821610100  0.1646058999063360
  0.3353362375525938  0.6641757002121511  0.1660205665955098
  0.5010577566384071  0.8317570641585453  0.1646409143397529
  0.6675283295581107  0.9983800615013951  0.1646415008147215
  0.1683811847105474  0.3338242514356266  0.3332063199537793
  0.3387416334095097  0.4973753958193553  0.3343425311152136
  0.5021292041440052  0.6607783739502878  0.3344320282153388
  0.6656878895575469  0.8311487971852186  0.3331670036019063
  0.8342272971426686  0.9983872803093748  0.3313355111496871
  0.1677269903280685  0.1652248983035431  0.4978033025753548
  0.3387495304721551  0.3349387649501012  0.4967645012347832
  0.6646437769141523  0.6608309783383954  0.4967473972873737
  0.8342638393654803  0.8317811941581125  0.4978044273131265
  0.0014523045795968  0.9980217200982867  0.4978492924938269
  0.3353156531359774  0.1666417897794589  0.6635082519927784
  0.5021393749729514  0.3350689863676581  0.6601893090563148
  0.6647023235416415  0.4973594919057314  0.6602962426746980
  0.8328784218033409  0.6642189202581777  0.6635535330321786
  0.0014476693628959  0.8310414971162439  0.6640167323976287
  0.5010597640400448  0.1652674242010125  0.8311304680559856
  0.6657122780554571  0.3337849879174678  0.8305435065974205
  0.8342878378330641  0.4984370920323443  0.8311763308450754
  0.0014433957752014  0.6646743868291163  0.8304150939879766
  0.6675360809210961  0.1652471001073759  0.9977653341457116
  0.8342389994691727  0.3319435613984668  0.9977765741373910
  0.0014548551010695  0.4984716781194157  0.9974268836683117
  0.1685062684144080  0.8309836721698277  0.1650173751305658
  0.3346476214574448  0.9981101817288163  0.1646739970072666
  0.1692167310660096  0.6630438742651736  0.3331938797920167
  0.3364201437935943  0.8302374675225720  0.3332250060794688
  0.5009978953237516  0.0008620246195773  0.3299368691111258
  0.1531443310453200  0.4983978104307169  0.4977804425966101
  0.3468570229046691  0.6524848482752181  0.4964394844314328
  0.5010888962213987  0.8462003820073747  0.4978016954914053
  0.6689368430325650  0.0008598052382598  0.4979041514963918
  0.1692060640887376  0.3338108020626919  0.6624412147490156
  0.3468342347743957  0.4970778308559910  0.6518186123880221
  0.5024509385500638  0.6521748167335865  0.6515824697366128
  0.6656432133262602  0.8302525321944256  0.6624535959593689
  0.8341928708045990  0.9981061930996591  0.6642438902023755
  0.1684946344404898  0.1656303513927817  0.8303616942552604
  0.3363959965723313  0.3338307204030725  0.8296112367102274
  0.5010710423932896  0.4984246798416580  0.8455720347589984
  0.6656538150164142  0.6630815815469406  0.8296151602992331
  0.8338686741561032  0.8310060286294461  0.8303726233629748
  0.0013981229666716  0.9981092128012720  0.8307740447553065
  0.3346455616946957  0.1652949308169642  0.9974871028679745
  0.5009838516634337  0.3305253634907194  0.0002556708647183
  0.6689335726510621  0.4984958645084767  0.0002423082774962
  0.8341902039311448  0.6648423994038739  0.9975013999529994
  0.0013879030439189  0.8314036811405725  0.9974868534087242
  0.1682350144726254  0.9979688592860871  0.3314699136849826
  0.1700487483139548  0.8294269002688345  0.4979525998400534
  0.3335958652416866  0.9999679995600701  0.4977963705839323
  0.1693691114807692  0.6629086183318021  0.6622757854541852
  0.3366377969747918  0.8300517254274686  0.6622509319336385
  0.5010741348021999  0.0000031803778668  0.6652963293027728
  0.1700419066046467  0.4986040802646764  0.8288097898159497
  0.3366459361026361  0.6628954704884691  0.8294318199047657
  0.5009196544012580  0.8294159765280071  0.8287805795351053
  0.6674002862480090  0.9979852832246653  0.8306304414806357
  0.1682401879605803  0.3320988551353556  0.9973564126298498
  0.3336003426070467  0.4984272356950671  0.9993478885735954
  0.5010717778778226  0.6658919028924590  0.9993897948369248
  0.6673939158154001  0.8312491938854749  0.9973558424998626
  0.8344271956757694  0.9981589064961404  0.9975387271993617
  0.1684931185671333  0.9980327654937151  0.6640173363506053
  0.1689388239042081  0.8305991226883833  0.8299630026654713
  0.3348556570938757  0.9980716693814068  0.8303833126155253
  0.1684938339312698  0.6646405062644747  0.9974318236061589
  0.3348671905325462  0.8310413904131428  0.9974359104085357
  0.5010341108760347  0.9980338924605695  0.9974123803428951
  0.1681062847511937  0.9981153531921164  0.9974824090480751
 
  0.00000000E+00  0.00000000E+00  0.00000000E+00
  0.00000000E+00  0.00000000E+00  0.00000000E+00
  0.00000000E+00  0.00000000E+00  0.00000000E+00
  0.00000000E+00  0.00000000E+00  0.00000000E+00
  0.00000000E+00  0.00000000E+00  0.00000000E+00
  0.00000000E+00  0.00000000E+00  0.00000000E+00
  0.00000000E+00  0.00000000E+00  0.00000000E+00
  0.00000000E+00  0.00000000E+00  0.00000000E+00
  0.00000000E+00  0.00000000E+00  0.00000000E+00
  0.00000000E+00  0.00000000E+00  0.00000000E+00
  0.00000000E+00  0.00000000E+00  0.00000000E+00
  0.00000000E+00  0.00000000E+00  0.00000000E+00
  0.00000000E+00  0.00000000E+00  0.00000000E+00
  0.00000000E+00  0.00000000E+00  0.00000000E+00
  0.00000000E+00  0.00000000E+00  0.00000000E+00
  0.00000000E+00  0.00000000E+00  0.00000000E+00
  0.00000000E+00  0.00000000E+00  0.00000000E+00
  0.00000000E+00  0.00000000E+00  0.00000000E+00
  0.00000000E+00  0.00000000E+00  0.00000000E+00
  0.00000000E+00  0.00000000E+00  0.00000000E+00
  0.00000000E+00  0.00000000E+00  0.00000000E+00
  0.00000000E+00  0.00000000E+00  0.00000000E+00
  0.00000000E+00  0.00000000E+00  0.00000000E+00
  0.00000000E+00  0.00000000E+00  0.00000000E+00
  0.00000000E+00  0.00000000E+00  0.00000000E+00
  0.00000000E+00  0.00000000E+00  0.00000000E+00
  0.00000000E+00  0.00000000E+00  0.00000000E+00
  0.00000000E+00  0.00000000E+00  0.00000000E+00
  0.00000000E+00  0.00000000E+00  0.00000000E+00
  0.00000000E+00  0.00000000E+00  0.00000000E+00
  0.00000000E+00  0.00000000E+00  0.00000000E+00
  0.00000000E+00  0.00000000E+00  0.00000000E+00
  0.00000000E+00  0.00000000E+00  0.00000000E+00
  0.00000000E+00  0.00000000E+00  0.00000000E+00
  0.00000000E+00  0.00000000E+00  0.00000000E+00
  0.00000000E+00  0.00000000E+00  0.00000000E+00
  0.00000000E+00  0.00000000E+00  0.00000000E+00
  0.00000000E+00  0.00000000E+00  0.00000000E+00
  0.00000000E+00  0.00000000E+00  0.00000000E+00
  0.00000000E+00  0.00000000E+00  0.00000000E+00
  0.00000000E+00  0.00000000E+00  0.00000000E+00
  0.00000000E+00  0.00000000E+00  0.00000000E+00
  0.00000000E+00  0.00000000E+00  0.00000000E+00
  0.00000000E+00  0.00000000E+00  0.00000000E+00
  0.00000000E+00  0.00000000E+00  0.00000000E+00
  0.00000000E+00  0.00000000E+00  0.00000000E+00
  0.00000000E+00  0.00000000E+00  0.00000000E+00
  0.00000000E+00  0.00000000E+00  0.00000000E+00
  0.00000000E+00  0.00000000E+00  0.00000000E+00
  0.00000000E+00  0.00000000E+00  0.00000000E+00
  0.00000000E+00  0.00000000E+00  0.00000000E+00
  0.00000000E+00  0.00000000E+00  0.00000000E+00
  0.00000000E+00  0.00000000E+00  0.00000000E+00
  0.00000000E+00  0.00000000E+00  0.00000000E+00
  0.00000000E+00  0.00000000E+00  0.00000000E+00
  0.00000000E+00  0.00000000E+00  0.00000000E+00
  0.00000000E+00  0.00000000E+00  0.00000000E+00
  0.00000000E+00  0.00000000E+00  0.00000000E+00
  0.00000000E+00  0.00000000E+00  0.00000000E+00
  0.00000000E+00  0.00000000E+00  0.00000000E+00
  0.00000000E+00  0.00000000E+00  0.00000000E+00
  0.00000000E+00  0.00000000E+00  0.00000000E+00
  0.00000000E+00  0.00000000E+00  0.00000000E+00
  0.00000000E+00  0.00000000E+00  0.00000000E+00
  0.00000000E+00  0.00000000E+00  0.00000000E+00
  0.00000000E+00  0.00000000E+00  0.00000000E+00
  0.00000000E+00  0.00000000E+00  0.00000000E+00
  0.00000000E+00  0.00000000E+00  0.00000000E+00
  0.00000000E+00  0.00000000E+00  0.00000000E+00
  0.00000000E+00  0.00000000E+00  0.00000000E+00
  0.00000000E+00  0.00000000E+00  0.00000000E+00
  0.00000000E+00  0.00000000E+00  0.00000000E+00
  0.00000000E+00  0.00000000E+00  0.00000000E+00
  0.00000000E+00  0.00000000E+00  0.00000000E+00
  0.00000000E+00  0.00000000E+00  0.00000000E+00
  0.00000000E+00  0.00000000E+00  0.00000000E+00
  0.00000000E+00  0.00000000E+00  0.00000000E+00
  0.00000000E+00  0.00000000E+00  0.00000000E+00
  0.00000000E+00  0.00000000E+00  0.00000000E+00
  0.00000000E+00  0.00000000E+00  0.00000000E+00
  0.00000000E+00  0.00000000E+00  0.00000000E+00
  0.00000000E+00  0.00000000E+00  0.00000000E+00
  0.00000000E+00  0.00000000E+00  0.00000000E+00
  0.00000000E+00  0.00000000E+00  0.00000000E+00
  0.00000000E+00  0.00000000E+00  0.00000000E+00
  0.00000000E+00  0.00000000E+00  0.00000000E+00
  0.00000000E+00  0.00000000E+00  0.00000000E+00
  0.00000000E+00  0.00000000E+00  0.00000000E+00
  0.00000000E+00  0.00000000E+00  0.00000000E+00
  0.00000000E+00  0.00000000E+00  0.00000000E+00
  0.00000000E+00  0.00000000E+00  0.00000000E+00
  0.00000000E+00  0.00000000E+00  0.00000000E+00
  0.00000000E+00  0.00000000E+00  0.00000000E+00
  0.00000000E+00  0.00000000E+00  0.00000000E+00
  0.00000000E+00  0.00000000E+00  0.00000000E+00
  0.00000000E+00  0.00000000E+00  0.00000000E+00
  0.00000000E+00  0.00000000E+00  0.00000000E+00
  0.00000000E+00  0.00000000E+00  0.00000000E+00
  0.00000000E+00  0.00000000E+00  0.00000000E+00
  0.00000000E+00  0.00000000E+00  0.00000000E+00
  0.00000000E+00  0.00000000E+00  0.00000000E+00
  0.00000000E+00  0.00000000E+00  0.00000000E+00
  0.00000000E+00  0.00000000E+00  0.00000000E+00
  0.00000000E+00  0.00000000E+00  0.00000000E+00
  0.00000000E+00  0.00000000E+00  0.00000000E+00
  0.00000000E+00  0.00000000E+00  0.00000000E+00
  0.00000000E+00  0.00000000E+00  0.00000000E+00
  0.00000000E+00  0.00000000E+00  0.00000000E+00
  0.00000000E+00  0.00000000E+00  0.00000000E+00
  0.00000000E+00  0.00000000E+00  0.00000000E+00
  0.00000000E+00  0.00000000E+00  0.00000000E+00
  0.00000000E+00  0.00000000E+00  0.00000000E+00
  0.00000000E+00  0.00000000E+00  0.00000000E+00
  0.00000000E+00  0.00000000E+00  0.00000000E+00
  0.00000000E+00  0.00000000E+00  0.00000000E+00
  0.00000000E+00  0.00000000E+00  0.00000000E+00
  0.00000000E+00  0.00000000E+00  0.00000000E+00
  0.00000000E+00  0.00000000E+00  0.00000000E+00
  0.00000000E+00  0.00000000E+00  0.00000000E+00
  0.00000000E+00  0.00000000E+00  0.00000000E+00
  0.00000000E+00  0.00000000E+00  0.00000000E+00
  0.00000000E+00  0.00000000E+00  0.00000000E+00
  0.00000000E+00  0.00000000E+00  0.00000000E+00
  0.00000000E+00  0.00000000E+00  0.00000000E+00
  0.00000000E+00  0.00000000E+00  0.00000000E+00
  0.00000000E+00  0.00000000E+00  0.00000000E+00
  0.00000000E+00  0.00000000E+00  0.00000000E+00
  0.00000000E+00  0.00000000E+00  0.00000000E+00
  0.00000000E+00  0.00000000E+00  0.00000000E+00
  0.00000000E+00  0.00000000E+00  0.00000000E+00
  0.00000000E+00  0.00000000E+00  0.00000000E+00
  0.00000000E+00  0.00000000E+00  0.00000000E+00
  0.00000000E+00  0.00000000E+00  0.00000000E+00
  0.00000000E+00  0.00000000E+00  0.00000000E+00
  0.00000000E+00  0.00000000E+00  0.00000000E+00
  0.00000000E+00  0.00000000E+00  0.00000000E+00
  0.00000000E+00  0.00000000E+00  0.00000000E+00
  0.00000000E+00  0.00000000E+00  0.00000000E+00
  0.00000000E+00  0.00000000E+00  0.00000000E+00
  0.00000000E+00  0.00000000E+00  0.00000000E+00
  0.00000000E+00  0.00000000E+00  0.00000000E+00
  0.00000000E+00  0.00000000E+00  0.00000000E+00
  0.00000000E+00  0.00000000E+00  0.00000000E+00
  0.00000000E+00  0.00000000E+00  0.00000000E+00
  0.00000000E+00  0.00000000E+00  0.00000000E+00
  0.00000000E+00  0.00000000E+00  0.00000000E+00
  0.00000000E+00  0.00000000E+00  0.00000000E+00
  0.00000000E+00  0.00000000E+00  0.00000000E+00
  0.00000000E+00  0.00000000E+00  0.00000000E+00
  0.00000000E+00  0.00000000E+00  0.00000000E+00
  0.00000000E+00  0.00000000E+00  0.00000000E+00
  0.00000000E+00  0.00000000E+00  0.00000000E+00
  0.00000000E+00  0.00000000E+00  0.00000000E+00
  0.00000000E+00  0.00000000E+00  0.00000000E+00
  0.00000000E+00  0.00000000E+00  0.00000000E+00
  0.00000000E+00  0.00000000E+00  0.00000000E+00
  0.00000000E+00  0.00000000E+00  0.00000000E+00
  0.00000000E+00  0.00000000E+00  0.00000000E+00
  0.00000000E+00  0.00000000E+00  0.00000000E+00
  0.00000000E+00  0.00000000E+00  0.00000000E+00
  0.00000000E+00  0.00000000E+00  0.00000000E+00
  0.00000000E+00  0.00000000E+00  0.00000000E+00
  0.00000000E+00  0.00000000E+00  0.00000000E+00
  0.00000000E+00  0.00000000E+00  0.00000000E+00
  0.00000000E+00  0.00000000E+00  0.00000000E+00
  0.00000000E+00  0.00000000E+00  0.00000000E+00
  0.00000000E+00  0.00000000E+00  0.00000000E+00
  0.00000000E+00  0.00000000E+00  0.00000000E+00
  0.00000000E+00  0.00000000E+00  0.00000000E+00
  0.00000000E+00  0.00000000E+00  0.00000000E+00
  0.00000000E+00  0.00000000E+00  0.00000000E+00
  0.00000000E+00  0.00000000E+00  0.00000000E+00
  0.00000000E+00  0.00000000E+00  0.00000000E+00
  0.00000000E+00  0.00000000E+00  0.00000000E+00
  0.00000000E+00  0.00000000E+00  0.00000000E+00
  0.00000000E+00  0.00000000E+00  0.00000000E+00
  0.00000000E+00  0.00000000E+00  0.00000000E+00
  0.00000000E+00  0.00000000E+00  0.00000000E+00
  0.00000000E+00  0.00000000E+00  0.00000000E+00
  0.00000000E+00  0.00000000E+00  0.00000000E+00
  0.00000000E+00  0.00000000E+00  0.00000000E+00
  0.00000000E+00  0.00000000E+00  0.00000000E+00
  0.00000000E+00  0.00000000E+00  0.00000000E+00
  0.00000000E+00  0.00000000E+00  0.00000000E+00
  0.00000000E+00  0.00000000E+00  0.00000000E+00
  0.00000000E+00  0.00000000E+00  0.00000000E+00
  0.00000000E+00  0.00000000E+00  0.00000000E+00
  0.00000000E+00  0.00000000E+00  0.00000000E+00
  0.00000000E+00  0.00000000E+00  0.00000000E+00
  0.00000000E+00  0.00000000E+00  0.00000000E+00
  0.00000000E+00  0.00000000E+00  0.00000000E+00
  0.00000000E+00  0.00000000E+00  0.00000000E+00
  0.00000000E+00  0.00000000E+00  0.00000000E+00
  0.00000000E+00  0.00000000E+00  0.00000000E+00
  0.00000000E+00  0.00000000E+00  0.00000000E+00
  0.00000000E+00  0.00000000E+00  0.00000000E+00
  0.00000000E+00  0.00000000E+00  0.00000000E+00
  0.00000000E+00  0.00000000E+00  0.00000000E+00
  0.00000000E+00  0.00000000E+00  0.00000000E+00
  0.00000000E+00  0.00000000E+00  0.00000000E+00
  0.00000000E+00  0.00000000E+00  0.00000000E+00
  0.00000000E+00  0.00000000E+00  0.00000000E+00
  0.00000000E+00  0.00000000E+00  0.00000000E+00
  0.00000000E+00  0.00000000E+00  0.00000000E+00
  0.00000000E+00  0.00000000E+00  0.00000000E+00
  0.00000000E+00  0.00000000E+00  0.00000000E+00
  0.00000000E+00  0.00000000E+00  0.00000000E+00
  0.00000000E+00  0.00000000E+00  0.00000000E+00
  0.00000000E+00  0.00000000E+00  0.00000000E+00
  0.00000000E+00  0.00000000E+00  0.00000000E+00
  0.00000000E+00  0.00000000E+00  0.00000000E+00
  0.00000000E+00  0.00000000E+00  0.00000000E+00
  0.00000000E+00  0.00000000E+00  0.00000000E+00
  0.00000000E+00  0.00000000E+00  0.00000000E+00
  0.00000000E+00  0.00000000E+00  0.00000000E+00
  0.00000000E+00  0.00000000E+00  0.00000000E+00
