Mg109 O107
1.0
  12.5998379999999983    0.0000000000000004    0.0000000000000004
   0.0000000000000004   12.5998379999999983   -0.0000000000000004
  -0.0000000000000004   -0.0000000000000004   12.5998379999999983
Mg O
109 107
direct
   0.6683592608550003   -0.0015630523197636    0.9978028161583955 Mg
   0.8347558969259180    0.1647511628030264   -0.0019194415882001 Mg
   0.8347335317767376   -0.0012732605395675    0.1641098778510202 Mg
   0.3340991702682931   -0.0016893056443978    0.9976652891022375 Mg
   0.5011696807219236    0.1637180096673900   -0.0007608568579847 Mg
   0.6685217268431121    0.3309880951193493    0.9995293034434714 Mg
   0.8358059643833946    0.4983659057602987    0.9992676063595479 Mg
   0.5011936077852713    0.9998454789629874    0.1631280680655025 Mg
   0.6681174712713461    0.1651927233437977    0.1645557820526020 Mg
   0.8343031239028336    0.3313404929807963    0.1645223845798914 Mg
   0.6685129061053005    0.0001760983718520    0.3303911339186315 Mg
   0.8342995173993220    0.1651676918237599    0.3307272080104610 Mg
   0.8357695536845480   -0.0000950166761756    0.4977069567622764 Mg
   0.0011197434491432   -0.0016748838277600   -0.0023066053224168 Mg
   0.1674153445729336    0.1645883590418792    0.9976413772586320 Mg
   0.3337066607771248    0.3310217052008702   -0.0013090513383297 Mg
   0.5013971006408556    0.4980892492135086    0.0020476490343732 Mg
   0.6684954569050872    0.6658775545857949   -0.0012874246172208 Mg
   0.8349130017674272    0.8321062629887317    0.9976702922238280 Mg
   0.1674186746226654   -0.0017689037452446    0.1639700071129815 Mg
   0.3338622763614719    0.1641094255257916    0.1635048685455651 Mg
   0.5011622431567216    0.3309662207797975    0.1645319396934608 Mg
   0.6685078010731625    0.4983232488648138    0.1645317939436810 Mg
   0.8353388458999859    0.6656903852977253    0.1635447787284013 Mg
   0.3336999925375449    0.9992351641948622    0.3304323260732537 Mg
   0.5011581891821754    0.1651029773984662    0.3303876562791326 Mg
   0.6676788075835224    0.3317670904387417    0.3311655410510481 Mg
   0.8343087880944836    0.4983132046950480    0.3303752633317065 Mg
   0.5013938893461185    0.0025988903129598    0.4975411577543904 Mg
   0.6684657911234355    0.1651434362899198    0.4977485843573170 Mg
   0.8343032612371591    0.3309787711985355    0.4977453891117300 Mg
   0.6685022174891487   -0.0006653337799482    0.6652568852718803 Mg
   0.8353262082602817    0.1641749157081172    0.6650545070300500 Mg
   0.8349252601614789   -0.0016861301656459    0.8314699846199013 Mg
   0.0011234991493910    0.3311563405159674   -0.0022221629179294 Mg
   0.1671388744349062    0.4981290064776888   -0.0022045122914362 Mg
   0.3342610945056763    0.6652770887516338   -0.0014050847572399 Mg
   0.5014134927930121    0.8324095598024807   -0.0021388903621278 Mg
   0.0007808469659087    0.1647223784907346    0.1640878653892207 Mg
   0.1666702175310184    0.3308509754056904    0.1634658375178619 Mg
   0.3330225585805272    0.4981000495074279    0.1630385889890670 Mg
   0.5014368505915210    0.6664368073903724    0.1630871829641680 Mg
   0.6686520193036386    0.8328156794859247    0.1635359920532572 Mg
   0.0010950714707179    0.9983798129645525    0.3305210124055383 Mg
   0.1666590939564463    0.1640533808870943    0.3302125092819151 Mg
   0.3337524991977679    0.3274125698414964    0.3268389308140549 Mg
   0.5011245668090565    0.4983385754782657    0.3274387873621701 Mg
   0.6720352527373394    0.6657095025568586    0.3269374447788933 Mg
   0.8353659421128939    0.8328464041634751    0.3302819619344338 Mg
   0.1671398015939778    0.9983849195147283    0.4975120686455483 Mg
   0.3330253331436538    0.1635616838917559    0.4974923985295284 Mg
   0.5010844446982110    0.3279811757112289    0.4977514125271282 Mg
   0.6714789551410383    0.4983925784061614    0.4978394233048668 Mg
   0.8359012298924552    0.6664537381546706    0.4975299283622652 Mg
   0.3342387126865202   -0.0008197008400797    0.6646997730425700 Mg
   0.5014147837561227    0.1636582999847903    0.6658473358451126 Mg
   0.6719727863825462    0.3275328873553363    0.6651389004259761 Mg
   0.8358976287906642    0.4981008591946346    0.6658968592355116 Mg
   0.5014046377680733   -0.0015237251373811    0.8317783270291123 Mg
   0.6686628951643321    0.1641512813091312    0.8322072589429658 Mg
   0.8353772466329653    0.3308842986844217    0.8322288816834383 Mg
   0.0012390691213385    0.6654374223724051   -0.0023132901276676 Mg
   0.1675628753848971    0.8319574336835904   -0.0023649963499340 Mg
   0.9995969984174374    0.4983529245743564    0.1630767306996646 Mg
   0.1673538609138775    0.6656663030945001    0.1634871678156755 Mg
   0.3338761345968316    0.8321493781586127    0.1635009437418810 Mg
  -0.0007402703424758    0.3309496339029361    0.3303395056182456 Mg
   0.1598147132217669    0.4984987190386293    0.3244236030672942 Mg
   0.3342530430538337    0.6652406207595104    0.3293131195079683 Mg
   0.5010536446359435    0.8394797220794704    0.3245527190605969 Mg
  -0.0004108940227670    0.1636864468626300    0.4977178203497704 Mg
   0.1598088423619711    0.3249770875495857    0.4979181524362339 Mg
   0.3018239191559887    0.4792434537469379    0.4786970233446370 Mg
   0.5202067689059594    0.6972744291028808    0.4790685331450054 Mg
   0.6744492915926629    0.8395718332509816    0.4979574076229316 Mg
   0.0012199923837436   -0.0016596550703369    0.6647623751598306 Mg
   0.1673460598815285    0.1640978500465706    0.6650343505184519 Mg
   0.3342478899148131    0.3299097228930146    0.6646148921509822 Mg
   0.5201360143820384    0.4796969946842148    0.6966370122515403 Mg
   0.6696950839127643    0.6652800981490051    0.6646888828771095 Mg
   0.8354754781787319    0.8321978326252342    0.6650642828305148 Mg
   0.1675668866914805   -0.0017507477229282    0.8312951027835623 Mg
   0.3338558968274038    0.1640994362042970    0.8315417968557056 Mg
   0.5010203816836337    0.3251565394807470    0.8388712666275036 Mg
   0.6744159608188656    0.4985483928960629    0.8389405763261472 Mg
   0.8354748586356490    0.6656872623784659    0.8315740852253989 Mg
   0.0012289733159695    0.8320978419256448    0.1640147981536308 Mg
   0.0001341800223333    0.6658427580701526    0.3303982189615319 Mg
   0.1675457073228236    0.8319071859429512    0.3304191137173732 Mg
   0.9967465124880439    0.4980977551703502    0.4975230329733206 Mg
   0.1642391658434819    0.6657770020854135    0.4972691477026303 Mg
   0.3337701195106839    0.8351355733567212    0.4972953968018775 Mg
   0.0001269681094018    0.3310299112722092    0.6652531161322179 Mg
   0.1642410891289841    0.4978702133548724    0.6651476914720871 Mg
   0.3281860694870225    0.6712304872635847    0.6706559067406576 Mg
   0.5016465076928888    0.8352829201658879    0.6651938922356884 Mg
   0.0012401648963985    0.1646493235760335    0.8314703805078020 Mg
   0.1675595487919218    0.3310265437973677    0.8313182048779244 Mg
   0.3337472333025709    0.4978671672534716    0.8346064650713498 Mg
   0.5016385225634445    0.6657816732068588    0.8346851303299568 Mg
   0.6685284936611479    0.8319855354076376    0.8313515843221980 Mg
   0.0010394557065223    0.8323984419072384    0.4974970013057756 Mg
   0.0003610278876665    0.6652794460597257    0.6646756369224641 Mg
   0.1664939148461299    0.8330336756661069    0.6645584908180510 Mg
   0.0010923380775333    0.4981488035292611    0.8317803644889379 Mg
   0.1665231351152357    0.6652021873317926    0.8324078452257234 Mg
   0.3342895381487859    0.8330377111761930    0.8324218780367993 Mg
   0.0012898499096355    0.8319527466351444    0.8312941452369185 Mg
   0.4437111860322405    0.5553361156664238    0.5546629833704955 Mg
   0.8342932755294403    0.1651731212844718    0.1645430065488728 O
   0.0007440636068919    0.3316771080270846    0.1643291466991386 O
   0.0007442906859961    0.1649467820073257    0.3310487683208059 O
   0.5009161510165819    0.1653676104892858    0.1647658131700033 O
   0.6674421105155116    0.3320486019734646    0.1653626551858352 O
   0.8340893604237382    0.4985711345744006    0.1647625426032476 O
   0.0013528032504517    0.6651062474952842    0.1641947837351578 O
   0.6674200784814063    0.1660072067295881    0.3314232645370982 O
   0.8334665849147904    0.3320224939196780    0.3313794638482612 O
   0.9986100345202663    0.4984149269308032    0.3300240371550355 O
   0.8340778364126770    0.1653807103248777    0.4979022685262461 O
  -0.0013919504778609    0.3306490115291713    0.4977901283638620 O
   0.0013569423042596    0.1648366524735472    0.6644703654192863 O
   0.1676035152554823    0.1649225470371299    0.1643111629425151 O
   0.3339426313554267    0.3312783225561260    0.1640536893071951 O
   0.5007177545310589    0.4987443304833601    0.1653114322680045 O
   0.6682031189981313    0.6655194315150996    0.1640891967106724 O
   0.8345453200058859    0.8319162575652372    0.1643426180094666 O
   0.0011808421113756   -0.0017373292769956    0.1642490868543062 O
   0.3339521000694572    0.1645975881795308    0.3306700384264925 O
   0.5001420584848648    0.3327119583271671    0.3321220448091481 O
   0.6667314562730632    0.4992692660104064    0.3321468441856980 O
   0.8348093369861054    0.6655274359649741    0.3306621671956322 O
   0.0014985840399168    0.8317009067559319    0.3310031054299618 O
   0.5006954315164228    0.1658685933975131    0.4981684286980817 O
   0.6667005313287011    0.3327474817903363    0.4987028123180859 O
   0.8335680465651349    0.4987341576969497    0.4981710014760546 O
   0.0001915909877034    0.6654760703288080    0.4976167950762681 O
   0.6682029981414299    0.1646774286317281    0.6648976242611591 O
   0.8348107513145662    0.3312707141192504    0.6649392612911076 O
   0.0001966552316852    0.4982473098913586    0.6648807390452204 O
   0.8345443511408049    0.1649964262035342    0.8312832916110404 O
   0.0015347422265022    0.3316737840215650    0.8310628766736795 O
   0.0012030633669192    0.1648870561488749   -0.0023449933764935 O
   0.1665282792487983    0.4982990589505172    0.1631894151726981 O
   0.3345394059416530    0.6649582235889903    0.1647040977656669 O
   0.5012462447147876    0.8328956023955616    0.1632321372230337 O
   0.6678123379477963    0.9987369334492601    0.1643737319500792 O
   0.1669335656020358    0.3321945286321570    0.3316169308691767 O
   0.3316243744275225    0.4971001144263758    0.3280411489521756 O
   0.5024113368930402    0.6677633573449203    0.3281983980968388 O
   0.6672562740342706    0.8324594991356149    0.3316689546030830 O
   0.8344834643870250   -0.0012496935125233    0.3310373970341173 O
   0.1665371078958492    0.1637677465576538    0.4976782616868456 O
   0.3316282091402167    0.3285918193692152    0.4964682461374202 O
   0.6709935288262513    0.6678064055364280    0.4965727391310912 O
   0.8356812681970035    0.8329403628344424    0.4977105637461615 O
   0.0013843595823506    0.9981004150607506    0.4976962979933127 O
   0.3345064972815305    0.1653003501042507    0.6643375051800119 O
   0.5023672446620386    0.3288237942531006    0.6671521580203752 O
   0.6709377957566506    0.4971558559888394    0.6672550748849685 O
   0.8342956615023269    0.6650119371540303    0.6644180663861428 O
   0.0015045277123860    0.8314635395112513    0.6642027781340430 O
   0.5011955096188571    0.1638501409824180    0.8322709908898283 O
   0.6672372876213393    0.3322765854033410    0.8318902247584932 O
   0.8356963923270647    0.4983443395866011    0.8323495911607512 O
   0.0015340972877877    0.6648753858475799    0.8308329216720737 O
   0.6678032730639379    0.1650152340283013   -0.0019012646960645 O
   0.8345186978959008    0.3316835921015014    0.9981138493974361 O
   0.0014282271770985    0.4983573417384425   -0.0025249862108380 O
   0.1680731771282588    0.8314158472104750    0.1644046148088720 O
   0.3344319946733103    0.9981041524744924    0.1642087710931858 O
   0.1681666314963605    0.6641068854037617    0.3318539758218769 O
   0.3354257423665334    0.8312246663109137    0.3318891143454201 O
   0.5011011775824902    0.0007576903711516    0.3300914646579679 O
   0.1564984677035204    0.4974455388141693    0.4968539655113460 O
   0.3407727041291595    0.6585117434638935    0.4980926342608208 O
   0.5020739734043680    0.8426983661456859    0.4969811703596715 O
   0.6687735819260459    0.0007798666306009    0.4978220309400961 O
   0.1681716510139822    0.3324480286396059    0.6634614617960409 O
   0.3407940477481286    0.4986707428031678    0.6578774016161960 O
   0.5008618415296432    0.6583295517439870    0.6577631045199001 O
   0.6670653678982530    0.8313092611193275    0.6635282338125283 O
   0.8346377730950623   -0.0018374853413776    0.6644510045654252 O
   0.1680774853664299    0.1650117528089593    0.8307995611467683 O
   0.3353973323161368    0.3325083085171008    0.8306227813825757 O
   0.5020679285914352    0.4975411869030266    0.8421301149306393 O
   0.6670511031475889    0.6641878670689035    0.8306782193135194 O
   0.8345352748297122    0.8314738582295623    0.8308170870685795 O
   0.0013867953180728   -0.0018826048723004    0.8309224363425964 O
   0.3344275627135201    0.1648218612796165   -0.0024955907857746 O
   0.5010799114347273    0.3306882452759849    0.0001710764170430 O
   0.6687952359243888    0.4984533209218476    0.0001725354874831 O
   0.8346547346495397    0.6651100837839403    0.9975147624744567 O
   0.0014003033268558    0.8315792885333505   -0.0025342924241415 O
   0.1678299035502319   -0.0020745774565553    0.3309894163625338 O
   0.1691514245908950    0.8303213220360240    0.4977270578385817 O
   0.3340145373278480   -0.0008228551693650    0.4976378536684831 O
   0.1679131341890858    0.6641130406350290    0.6634935673007776 O
   0.3354335918786711    0.8314990593807066    0.6635059355835593 O
   0.5012500142679619   -0.0007122878117112    0.6649065663531170 O
   0.1691647430915096    0.4983600625313153    0.8296661338244038 O
   0.3354450509042816    0.6640924846578197    0.8309043727341491 O
   0.5011815062663014    0.8303006049629862    0.8296907748242527 O
   0.6678967455498739   -0.0019947238708788    0.8310760407516835 O
   0.1678291918630000    0.3316247366784340    0.9973458660091715 O
   0.3340238810489501    0.4982683893482632   -0.0013747146541717 O
   0.5012682854624902    0.6654899105837068   -0.0013225698601257 O
   0.6679013271121707    0.8317271508650781   -0.0026339756181327 O
   0.8345759030993155   -0.0016782764544694    0.9976690045762878 O
   0.1680879249849977    0.9980184284335957    0.6642130221574447 O
   0.1684747622904570    0.8310582995837479    0.8304441472724357 O
   0.3346630305058104   -0.0019952031572239    0.8308194479625632 O
   0.1681133225681476    0.6648636665723585   -0.0026062054156630 O
   0.3346716877904393    0.8314394528753262   -0.0026168073549682 O
   0.5011733529447060    0.9980932633617381   -0.0025302653718872 O
   0.1678941301888581   -0.0019038582267135   -0.0025361391686048 O
