-30.0% N(Distort)=3 ~[0.5,0.5,0.5]      
   1.00000000000000     
    12.5998379999999983    0.0000000000000004    0.0000000000000004
     0.0000000000000004   12.5998379999999983   -0.0000000000000004
    -0.0000000000000004   -0.0000000000000004   12.5998379999999983
   Mg   O 
   109   107
Direct
  0.6662843509973353 -0.0005053486148799  0.0005514931478946
  0.8329205071306893  0.1658293391255320  0.0006319614372177
  0.8327903137179480 -0.0005344378171648  0.1669319347767880
  0.3319927296050206 -0.0004465039146950  0.0005022517738277
  0.4991436433882149  0.1648379247078735 -0.0009647445256848
  0.6666451921444204  0.3322518940021419  0.9995742181248412
  0.8331846186282714  0.4993675594686240  0.0004394010188771
  0.4989944416127482  0.9996089353246577  0.1665305412619631
  0.6665004282023100  0.1653307005387381  0.1667165510030650
  0.8327616779623149  0.3322864620334213  0.1669390310564613
  0.6661326808207056  0.0004012569247198  0.3335716219672443
  0.8329965981202923  0.1653330698916640  0.3332209415011288
  0.8331789648607514 -0.0003891028308211  0.5007011914539721
  0.9991997713944264 -0.0004850463838160  0.0005299121709092
  0.1655735458966777  0.1658925966359197  0.0001778524958498
  0.3317755104592358  0.3320977597411385 -0.0012991630550167
  0.4989227433555642  0.4992645522458268  0.9962503069488704
  0.6661323779940155  0.6664949638964750 -0.0003172588923435
  0.8327924280531283  0.8331169390392733  0.0005821750741382
  0.1654645653216106 -0.0005701660511418  0.1667978905063837
  0.3316500399229981  0.1652547432392355  0.1660735985014207
  0.4993001159037100  0.3262226675127344  0.1593162070491153
  0.6665835748975149  0.4990657959833821  0.1636708197329517
  0.8338687454106423  0.6664055528637718  0.1658433275052035
  0.3318302969813073  0.0004966912726238  0.3330462762161563
  0.4988735524921516  0.1647757179403646  0.3324412541138378
  0.6660408764080668  0.3309958415264252  0.3336593507486535
  0.8360378593767099  0.4990668361700265  0.3331093199356324
  0.4988906876932925  0.0038652876112481  0.5008224125442475
  0.6672554110177246  0.1647749425196615  0.5008168897835364
  0.8403690315524308  0.3262296194157066  0.5004326593968933
  0.6666414284746727  0.0004737935438925  0.6678342910194416
  0.8336199068866913  0.1652595069971553  0.6680642949598655
  0.8329154630186443 -0.0005743572265294  0.8342399209058475
 -0.0007739134801059  0.3323635885557772  0.0004886862019785
  0.1645176723041014  0.4994759517102934 -0.0009727432359192
  0.3318888557408206  0.6669865455127243 -0.0004073838580591
  0.4989962290111664  0.8335159199191753  0.0004520251791853
 -0.0009058459166557  0.1658418460735615  0.1667868805952331
  0.1649191185677426  0.3320223610967252  0.1660726753982101
  0.3259310657574817  0.4996475719018693  0.1593495511034226
  0.4987224158392927  0.6669433971061794  0.1637076634688464
  0.6660770085316509  0.8342281708971705  0.1658578195297654
  0.9991568268514777 -0.0004887616535415  0.3334386860438547
  0.1649440642855355  0.1653138121858546  0.3332053311545308
  0.3282893126607109  0.3286584056809304  0.3331771825306061
  0.4802861542119947  0.4804820881753196  0.3015644465704093
  0.6721939082162167  0.6725955171279570  0.3275014129307794
  0.8338674081179747  0.8342254991129689  0.3336640664536447
  0.1644687974662724  0.0010482731826963  0.5005798390087832
  0.3317557672546266  0.1663146140632332  0.5005615275790394
  0.4991700530114818  0.3291860628967478  0.5005169357796747
  0.6981226466996528  0.4805403595475106  0.5193574019445116
  0.8360067322585802  0.6669241904078548  0.5009810740001209
  0.3317415501604585  0.0013762538523014  0.6679723704147634
  0.4991455025669676  0.1663217690995829  0.6679383095466667
  0.6664967629880113  0.3286825220807478  0.6713864917835902
  0.8403407231517079  0.4996225202408798  0.6737646519444076
  0.4991279804652259  0.0010359133752430  0.8352327815827604
  0.6665011579292889  0.1653181074481730  0.8347646215758158
  0.8336219659670555  0.3320129182743433  0.8347934913795215
 -0.0008255880339530  0.6666039204275981  0.0005380687591180
  0.1655004208784797  0.8332475354134211  0.0006221669056748
 -0.0007291355900120  0.4993596094544746  0.1665190825423546
  0.1649467164648428  0.6668290559408614  0.1667122857363762
  0.3319184623058290  0.8331074259345111  0.1669593047240399
  0.0001257826654133  0.3322531376478664  0.3330696734613491
  0.1644205249109591  0.4992691907613104  0.3324380707855045
  0.3306963094229566  0.6664122292530390  0.3336485301165443
  0.4987100657173703  0.8364712188376993  0.3331318128672657
  0.0006560942166455  0.1648597472050079  0.5005595567169311
  0.1659509039350034  0.3321497770810245  0.5005230239167775
  0.3288542240466032  0.4995469191865139  0.5005085386475194
  0.4801631402301464  0.6986322790109589  0.5194936169331587
  0.6665595764855513  0.8364377239889648  0.5009814489884461
  0.9992085762191281 -0.0004404783881203  0.6677082141288244
  0.1659887949444033  0.1663656972597565  0.6675326198600756
  0.3325952461375528  0.3329603223646567  0.6670909853561915
  0.4991770953588767  0.4995462149852745  0.6708311089137471
  0.6660345452512509  0.6663944341632673  0.6689644826313526
  0.8327640479385524  0.8331108115688525  0.6677509424478988
  0.1655328968449878 -0.0001238399809727  0.8341760569721981
  0.3321845973959556  0.1663527511024782  0.8337262180619016
  0.4991708936343162  0.3321573964809356  0.8337477752669014
  0.6672554700900908  0.4992724538969073  0.8352600332903888
  0.8329785754977537  0.6668230786794486  0.8346971056291360
 -0.0008747747959019  0.8331203849336857  0.1669196694016246
 -0.0000109976099884  0.6664901537384066  0.3335601723937103
  0.1649188812924254  0.8333372423531948  0.3332136236735819
  0.0034348626231896  0.4992706587964992  0.5007652302010730
  0.1644097094772142  0.6676212824957168  0.5007875080025952
  0.3258721157923634  0.8407962693360200  0.5003998259541744
  0.0010215627109378  0.3321130610830694  0.6679251405136182
  0.1659470774396793  0.4995333722279119  0.6678829805631256
  0.3282968832658542  0.6668936366149862  0.6713840543408971
  0.4992880011284436  0.8407755834785111  0.6738301907812998
 -0.0004608231499230  0.1658941657368655  0.8341540051683480
  0.1660134007137333  0.3325398082435949  0.8337024036992220
  0.3317909651926758  0.4995115515801967  0.8337549793316757
  0.4988990361191286  0.6676141510163575  0.8352627010010503
  0.6664930786664262  0.8333356863260006  0.8347028046710256
 -0.0007529612289293  0.8335249430391075  0.5007075566520912
  0.0000993316969685  0.6669928869946468  0.6677989564776713
  0.1649097420822471  0.8339849658740509  0.6680377277977607
  0.0006748414780707  0.4994855185270046  0.8351827522993615
  0.1649693200808628  0.6668306276075189  0.8347484574575104
  0.3316598831703512  0.8339825456747733  0.8348029316762148
 -0.0008994155170375  0.8332417990930576  0.8342277453187198
  0.5564057899976739  0.5569374839180744  0.4432627406191344
  0.8322657853366059  0.1662681147585932  0.1674613398534832
 -0.0012033665259899  0.3328812246613690  0.1671986583451611
 -0.0010475472310389  0.1660507991399214  0.3337677569596395
  0.4991279892427732  0.1649870352709932  0.1659339620225630
  0.6649358737665854  0.3337007911953046  0.1676350241585556
  0.8311263959261415  0.4995802879415347  0.1685624457420550
 -0.0011531222525330  0.6660550082900438  0.1674294138940008
  0.6658097880386790  0.1664625892080107  0.3338928237068930
  0.8320677319122215  0.3336931912424751  0.3347793293121077
  0.0000707246614506  0.4994727628805920  0.3333746131387089
  0.8337535522101480  0.1649859282553355  0.5005706270092616
  0.0016014303301605  0.3318809662374926  0.5004427113446908
 -0.0004674248244860  0.1661459604994881  0.6671939862133730
  0.1657440300679834  0.1661176854177067  0.1669546873703767
  0.3330758278698202  0.3333965836242581  0.1663812926537813
  0.4983172522543158  0.4986424949487227  0.1561403259403664
  0.6649349475494979  0.6653090742144053  0.1673042038383777
  0.8319069454796899  0.8322449831895675  0.1678086097692630
  0.9989427681502514 -0.0006971608987855  0.1672824697174947
  0.3320826108880747  0.1658142291859200  0.3333393029703077
  0.4979212569510041  0.3297784006734095  0.3310681929536331
  0.6593515582723922  0.4998972772475148  0.3403423046045522
  0.8323840675921252  0.6653038820563455  0.3347572220224777
 -0.0011690749458077  0.8326236557344050  0.3339996560355934
  0.4995858730228978  0.1671018335895517  0.5001382484129778
  0.6686222587939097  0.3297851031888683  0.5017714785504507
  0.8435532300642787  0.4986276338470121  0.5013945118257587
  0.0000606822277898  0.6666728645988741  0.5005829365194658
  0.6663622135531297  0.1658392025669133  0.6676180826807283
  0.8333396448676181  0.3333817783909289  0.6666564051149341
  0.0015973449104756  0.4996116949187698  0.6681524853700732
  0.8327440206465643  0.1661173461977641  0.8339560541677378
 -0.0004388040828874  0.3328603156564370  0.8339008183813813
 -0.0008896517680180  0.1661053283769550  0.0006071294010969
  0.1646689893176700  0.4995050435421023  0.1659454019254080
  0.3333618416764964  0.6653005419603198  0.1676329038134123
  0.4992529200866955  0.8314968156347304  0.1685821490299379
  0.6657303052265576 -0.0007707090859530  0.1674251172398919
  0.1654783266872846  0.3324610460222251  0.3333252434634501
  0.3295132204559047  0.4982768784602594  0.3310842734488158
  0.4995074832613710  0.6598555986857988  0.3403000747460271
  0.6649363509370224  0.8327942806895904  0.3347617087131592
  0.8322651468660843 -0.0007748046258600  0.3339837030694454
  0.1661663512600765  0.1665653068568827  0.5002794807527041
  0.3335908214473380  0.3339399939735918  0.4995406694551736
  0.6594088704625494  0.6598306891714806  0.5001724899038823
  0.8311236461983567  0.8314966509756532  0.5004770570438287
  0.9988742290766607 -0.0007588754363824  0.5004935272790624
  0.3328430515542590  0.1672036297004721  0.6668663564042157
  0.5001405634427157  0.3339536690777561  0.6661020070577292
  0.6686101574679592  0.4982676301461178  0.6701681987122543
  0.8320832422211946  0.6652772464178721  0.6663442812328636
 -0.0012217566713600  0.8328533218220652  0.6671953188224098
  0.4994323034935566  0.1665755392615276  0.8335232890858951
  0.6663647078720346  0.3324669117677183  0.8342097422422601
  0.8337409087078670  0.4994890747793412  0.8350392311562351
 -0.0010512660921272  0.6662675712224493  0.8340094587239074
  0.6659252943113401  0.1660440656987193  0.0007437407675831
  0.8324915954225665  0.3328980281651853  0.0009088393705381
 -0.0010867639498340  0.4995636000656363  0.0007918524200194
  0.1658741217176406  0.8326017410591220  0.1674503165266923
  0.3324696272425747 -0.0008710296285164  0.1671674248505931
  0.1661181299059054  0.6661779158089920  0.3338649164609642
  0.3333135235005149  0.8324626872727066  0.3347724620026680
  0.4990727345626442  0.0004804327819745  0.3333884090279294
  0.1667210947679995  0.4999687351819256  0.5000752690585601
  0.3294491902165853  0.6689912575220595  0.5017720909263674
  0.4982726644536902  0.8440081595469430  0.5014038600281322
  0.6662882155170082  0.0004679807621096  0.5006099482287407
  0.1668037525621471  0.3332580693797815  0.6668073806936544
  0.3335883732752369  0.5005199975106936  0.6660952372090153
  0.4979036814007969  0.6690076893260902  0.6702001679047344
  0.6649215264646356  0.8324562926266870  0.6663565810356697
  0.8324970094673406 -0.0008603754322731  0.6671938721737619
  0.1659767026748784  0.1663454608988056  0.8337279813960303
  0.3328832788168987  0.3332297483293001  0.8328855273368850
  0.4996081231396185  0.4999507586487561  0.8329564563841237
  0.6658112407761536  0.6661712982911077  0.8335446404622483
  0.8322602200604772  0.8325915745112923  0.8337787162502045
  0.9990980977232069 -0.0005486023024753  0.8339681838542630
  0.3325178033509630  0.1661377889908592  0.0001515829001862
  0.4992559982737302  0.3318670106782624  0.9980754799084326
  0.6662938614668574  0.4994759981022459 -0.0003929611792756
  0.8322614205561188  0.6660686076835548  0.0008414240821827
 -0.0010337086156024  0.8327663404231240  0.0007419051764291
  0.1656657554093661 -0.0006921357849844  0.3337766382562207
  0.1646260335656714  0.8341355695889713  0.5005613758933399
  0.3314885415021751  0.0020048021311793  0.5004951767957254
  0.1654627096627413  0.6667323329113832  0.6675989184568450
  0.3330555423853205  0.8336951998969826  0.6666422598695045
  0.4992298841805840  0.0020123837688953  0.6682226534692053
  0.1662030381967398  0.4997800477784071  0.8334867264959226
  0.3321093896217303  0.6667178629881065  0.8342408056530728
  0.4991337268539406  0.8341227038991659  0.8350717309207649
  0.6659352088216578 -0.0006860172547253  0.8340209372482640
  0.1657825929326889  0.3328454716352188  0.0001481403490663
  0.3315281961057790  0.4995646169087627 -0.0019030087306141
  0.4990976323916397  0.6666577856026912 -0.0003807158030055
  0.6657233443721251  0.8326282789188109  0.0008450552109130
  0.8324351052172160 -0.0007176109550562  0.0007523150290850
  0.1657618300763708 -0.0000826957878652  0.6672355948487065
  0.1657600011666671  0.8330931745144119  0.8339375244716271
  0.3324794662861871 -0.0000807548921638  0.8339348961681354
  0.1657024836297500  0.6662673670964511  0.0007574344129478
  0.3324945906153611  0.8328637563373167  0.0009355370286420
  0.4991977512294149  0.9992665993650479  0.0008230259784333
  0.1657355478775428 -0.0005435868228788  0.0006091323790768
 
  0.00000000E+00  0.00000000E+00  0.00000000E+00
  0.00000000E+00  0.00000000E+00  0.00000000E+00
  0.00000000E+00  0.00000000E+00  0.00000000E+00
  0.00000000E+00  0.00000000E+00  0.00000000E+00
  0.00000000E+00  0.00000000E+00  0.00000000E+00
  0.00000000E+00  0.00000000E+00  0.00000000E+00
  0.00000000E+00  0.00000000E+00  0.00000000E+00
  0.00000000E+00  0.00000000E+00  0.00000000E+00
  0.00000000E+00  0.00000000E+00  0.00000000E+00
  0.00000000E+00  0.00000000E+00  0.00000000E+00
  0.00000000E+00  0.00000000E+00  0.00000000E+00
  0.00000000E+00  0.00000000E+00  0.00000000E+00
  0.00000000E+00  0.00000000E+00  0.00000000E+00
  0.00000000E+00  0.00000000E+00  0.00000000E+00
  0.00000000E+00  0.00000000E+00  0.00000000E+00
  0.00000000E+00  0.00000000E+00  0.00000000E+00
  0.00000000E+00  0.00000000E+00  0.00000000E+00
  0.00000000E+00  0.00000000E+00  0.00000000E+00
  0.00000000E+00  0.00000000E+00  0.00000000E+00
  0.00000000E+00  0.00000000E+00  0.00000000E+00
  0.00000000E+00  0.00000000E+00  0.00000000E+00
  0.00000000E+00  0.00000000E+00  0.00000000E+00
  0.00000000E+00  0.00000000E+00  0.00000000E+00
  0.00000000E+00  0.00000000E+00  0.00000000E+00
  0.00000000E+00  0.00000000E+00  0.00000000E+00
  0.00000000E+00  0.00000000E+00  0.00000000E+00
  0.00000000E+00  0.00000000E+00  0.00000000E+00
  0.00000000E+00  0.00000000E+00  0.00000000E+00
  0.00000000E+00  0.00000000E+00  0.00000000E+00
  0.00000000E+00  0.00000000E+00  0.00000000E+00
  0.00000000E+00  0.00000000E+00  0.00000000E+00
  0.00000000E+00  0.00000000E+00  0.00000000E+00
  0.00000000E+00  0.00000000E+00  0.00000000E+00
  0.00000000E+00  0.00000000E+00  0.00000000E+00
  0.00000000E+00  0.00000000E+00  0.00000000E+00
  0.00000000E+00  0.00000000E+00  0.00000000E+00
  0.00000000E+00  0.00000000E+00  0.00000000E+00
  0.00000000E+00  0.00000000E+00  0.00000000E+00
  0.00000000E+00  0.00000000E+00  0.00000000E+00
  0.00000000E+00  0.00000000E+00  0.00000000E+00
  0.00000000E+00  0.00000000E+00  0.00000000E+00
  0.00000000E+00  0.00000000E+00  0.00000000E+00
  0.00000000E+00  0.00000000E+00  0.00000000E+00
  0.00000000E+00  0.00000000E+00  0.00000000E+00
  0.00000000E+00  0.00000000E+00  0.00000000E+00
  0.00000000E+00  0.00000000E+00  0.00000000E+00
  0.00000000E+00  0.00000000E+00  0.00000000E+00
  0.00000000E+00  0.00000000E+00  0.00000000E+00
  0.00000000E+00  0.00000000E+00  0.00000000E+00
  0.00000000E+00  0.00000000E+00  0.00000000E+00
  0.00000000E+00  0.00000000E+00  0.00000000E+00
  0.00000000E+00  0.00000000E+00  0.00000000E+00
  0.00000000E+00  0.00000000E+00  0.00000000E+00
  0.00000000E+00  0.00000000E+00  0.00000000E+00
  0.00000000E+00  0.00000000E+00  0.00000000E+00
  0.00000000E+00  0.00000000E+00  0.00000000E+00
  0.00000000E+00  0.00000000E+00  0.00000000E+00
  0.00000000E+00  0.00000000E+00  0.00000000E+00
  0.00000000E+00  0.00000000E+00  0.00000000E+00
  0.00000000E+00  0.00000000E+00  0.00000000E+00
  0.00000000E+00  0.00000000E+00  0.00000000E+00
  0.00000000E+00  0.00000000E+00  0.00000000E+00
  0.00000000E+00  0.00000000E+00  0.00000000E+00
  0.00000000E+00  0.00000000E+00  0.00000000E+00
  0.00000000E+00  0.00000000E+00  0.00000000E+00
  0.00000000E+00  0.00000000E+00  0.00000000E+00
  0.00000000E+00  0.00000000E+00  0.00000000E+00
  0.00000000E+00  0.00000000E+00  0.00000000E+00
  0.00000000E+00  0.00000000E+00  0.00000000E+00
  0.00000000E+00  0.00000000E+00  0.00000000E+00
  0.00000000E+00  0.00000000E+00  0.00000000E+00
  0.00000000E+00  0.00000000E+00  0.00000000E+00
  0.00000000E+00  0.00000000E+00  0.00000000E+00
  0.00000000E+00  0.00000000E+00  0.00000000E+00
  0.00000000E+00  0.00000000E+00  0.00000000E+00
  0.00000000E+00  0.00000000E+00  0.00000000E+00
  0.00000000E+00  0.00000000E+00  0.00000000E+00
  0.00000000E+00  0.00000000E+00  0.00000000E+00
  0.00000000E+00  0.00000000E+00  0.00000000E+00
  0.00000000E+00  0.00000000E+00  0.00000000E+00
  0.00000000E+00  0.00000000E+00  0.00000000E+00
  0.00000000E+00  0.00000000E+00  0.00000000E+00
  0.00000000E+00  0.00000000E+00  0.00000000E+00
  0.00000000E+00  0.00000000E+00  0.00000000E+00
  0.00000000E+00  0.00000000E+00  0.00000000E+00
  0.00000000E+00  0.00000000E+00  0.00000000E+00
  0.00000000E+00  0.00000000E+00  0.00000000E+00
  0.00000000E+00  0.00000000E+00  0.00000000E+00
  0.00000000E+00  0.00000000E+00  0.00000000E+00
  0.00000000E+00  0.00000000E+00  0.00000000E+00
  0.00000000E+00  0.00000000E+00  0.00000000E+00
  0.00000000E+00  0.00000000E+00  0.00000000E+00
  0.00000000E+00  0.00000000E+00  0.00000000E+00
  0.00000000E+00  0.00000000E+00  0.00000000E+00
  0.00000000E+00  0.00000000E+00  0.00000000E+00
  0.00000000E+00  0.00000000E+00  0.00000000E+00
  0.00000000E+00  0.00000000E+00  0.00000000E+00
  0.00000000E+00  0.00000000E+00  0.00000000E+00
  0.00000000E+00  0.00000000E+00  0.00000000E+00
  0.00000000E+00  0.00000000E+00  0.00000000E+00
  0.00000000E+00  0.00000000E+00  0.00000000E+00
  0.00000000E+00  0.00000000E+00  0.00000000E+00
  0.00000000E+00  0.00000000E+00  0.00000000E+00
  0.00000000E+00  0.00000000E+00  0.00000000E+00
  0.00000000E+00  0.00000000E+00  0.00000000E+00
  0.00000000E+00  0.00000000E+00  0.00000000E+00
  0.00000000E+00  0.00000000E+00  0.00000000E+00
  0.00000000E+00  0.00000000E+00  0.00000000E+00
  0.00000000E+00  0.00000000E+00  0.00000000E+00
  0.00000000E+00  0.00000000E+00  0.00000000E+00
  0.00000000E+00  0.00000000E+00  0.00000000E+00
  0.00000000E+00  0.00000000E+00  0.00000000E+00
  0.00000000E+00  0.00000000E+00  0.00000000E+00
  0.00000000E+00  0.00000000E+00  0.00000000E+00
  0.00000000E+00  0.00000000E+00  0.00000000E+00
  0.00000000E+00  0.00000000E+00  0.00000000E+00
  0.00000000E+00  0.00000000E+00  0.00000000E+00
  0.00000000E+00  0.00000000E+00  0.00000000E+00
  0.00000000E+00  0.00000000E+00  0.00000000E+00
  0.00000000E+00  0.00000000E+00  0.00000000E+00
  0.00000000E+00  0.00000000E+00  0.00000000E+00
  0.00000000E+00  0.00000000E+00  0.00000000E+00
  0.00000000E+00  0.00000000E+00  0.00000000E+00
  0.00000000E+00  0.00000000E+00  0.00000000E+00
  0.00000000E+00  0.00000000E+00  0.00000000E+00
  0.00000000E+00  0.00000000E+00  0.00000000E+00
  0.00000000E+00  0.00000000E+00  0.00000000E+00
  0.00000000E+00  0.00000000E+00  0.00000000E+00
  0.00000000E+00  0.00000000E+00  0.00000000E+00
  0.00000000E+00  0.00000000E+00  0.00000000E+00
  0.00000000E+00  0.00000000E+00  0.00000000E+00
  0.00000000E+00  0.00000000E+00  0.00000000E+00
  0.00000000E+00  0.00000000E+00  0.00000000E+00
  0.00000000E+00  0.00000000E+00  0.00000000E+00
  0.00000000E+00  0.00000000E+00  0.00000000E+00
  0.00000000E+00  0.00000000E+00  0.00000000E+00
  0.00000000E+00  0.00000000E+00  0.00000000E+00
  0.00000000E+00  0.00000000E+00  0.00000000E+00
  0.00000000E+00  0.00000000E+00  0.00000000E+00
  0.00000000E+00  0.00000000E+00  0.00000000E+00
  0.00000000E+00  0.00000000E+00  0.00000000E+00
  0.00000000E+00  0.00000000E+00  0.00000000E+00
  0.00000000E+00  0.00000000E+00  0.00000000E+00
  0.00000000E+00  0.00000000E+00  0.00000000E+00
  0.00000000E+00  0.00000000E+00  0.00000000E+00
  0.00000000E+00  0.00000000E+00  0.00000000E+00
  0.00000000E+00  0.00000000E+00  0.00000000E+00
  0.00000000E+00  0.00000000E+00  0.00000000E+00
  0.00000000E+00  0.00000000E+00  0.00000000E+00
  0.00000000E+00  0.00000000E+00  0.00000000E+00
  0.00000000E+00  0.00000000E+00  0.00000000E+00
  0.00000000E+00  0.00000000E+00  0.00000000E+00
  0.00000000E+00  0.00000000E+00  0.00000000E+00
  0.00000000E+00  0.00000000E+00  0.00000000E+00
  0.00000000E+00  0.00000000E+00  0.00000000E+00
  0.00000000E+00  0.00000000E+00  0.00000000E+00
  0.00000000E+00  0.00000000E+00  0.00000000E+00
  0.00000000E+00  0.00000000E+00  0.00000000E+00
  0.00000000E+00  0.00000000E+00  0.00000000E+00
  0.00000000E+00  0.00000000E+00  0.00000000E+00
  0.00000000E+00  0.00000000E+00  0.00000000E+00
  0.00000000E+00  0.00000000E+00  0.00000000E+00
  0.00000000E+00  0.00000000E+00  0.00000000E+00
  0.00000000E+00  0.00000000E+00  0.00000000E+00
  0.00000000E+00  0.00000000E+00  0.00000000E+00
  0.00000000E+00  0.00000000E+00  0.00000000E+00
  0.00000000E+00  0.00000000E+00  0.00000000E+00
  0.00000000E+00  0.00000000E+00  0.00000000E+00
  0.00000000E+00  0.00000000E+00  0.00000000E+00
  0.00000000E+00  0.00000000E+00  0.00000000E+00
  0.00000000E+00  0.00000000E+00  0.00000000E+00
  0.00000000E+00  0.00000000E+00  0.00000000E+00
  0.00000000E+00  0.00000000E+00  0.00000000E+00
  0.00000000E+00  0.00000000E+00  0.00000000E+00
  0.00000000E+00  0.00000000E+00  0.00000000E+00
  0.00000000E+00  0.00000000E+00  0.00000000E+00
  0.00000000E+00  0.00000000E+00  0.00000000E+00
  0.00000000E+00  0.00000000E+00  0.00000000E+00
  0.00000000E+00  0.00000000E+00  0.00000000E+00
  0.00000000E+00  0.00000000E+00  0.00000000E+00
  0.00000000E+00  0.00000000E+00  0.00000000E+00
  0.00000000E+00  0.00000000E+00  0.00000000E+00
  0.00000000E+00  0.00000000E+00  0.00000000E+00
  0.00000000E+00  0.00000000E+00  0.00000000E+00
  0.00000000E+00  0.00000000E+00  0.00000000E+00
  0.00000000E+00  0.00000000E+00  0.00000000E+00
  0.00000000E+00  0.00000000E+00  0.00000000E+00
  0.00000000E+00  0.00000000E+00  0.00000000E+00
  0.00000000E+00  0.00000000E+00  0.00000000E+00
  0.00000000E+00  0.00000000E+00  0.00000000E+00
  0.00000000E+00  0.00000000E+00  0.00000000E+00
  0.00000000E+00  0.00000000E+00  0.00000000E+00
  0.00000000E+00  0.00000000E+00  0.00000000E+00
  0.00000000E+00  0.00000000E+00  0.00000000E+00
  0.00000000E+00  0.00000000E+00  0.00000000E+00
  0.00000000E+00  0.00000000E+00  0.00000000E+00
  0.00000000E+00  0.00000000E+00  0.00000000E+00
  0.00000000E+00  0.00000000E+00  0.00000000E+00
  0.00000000E+00  0.00000000E+00  0.00000000E+00
  0.00000000E+00  0.00000000E+00  0.00000000E+00
  0.00000000E+00  0.00000000E+00  0.00000000E+00
  0.00000000E+00  0.00000000E+00  0.00000000E+00
  0.00000000E+00  0.00000000E+00  0.00000000E+00
  0.00000000E+00  0.00000000E+00  0.00000000E+00
  0.00000000E+00  0.00000000E+00  0.00000000E+00
  0.00000000E+00  0.00000000E+00  0.00000000E+00
  0.00000000E+00  0.00000000E+00  0.00000000E+00
  0.00000000E+00  0.00000000E+00  0.00000000E+00
  0.00000000E+00  0.00000000E+00  0.00000000E+00
  0.00000000E+00  0.00000000E+00  0.00000000E+00
  0.00000000E+00  0.00000000E+00  0.00000000E+00
  0.00000000E+00  0.00000000E+00  0.00000000E+00
  0.00000000E+00  0.00000000E+00  0.00000000E+00
  0.00000000E+00  0.00000000E+00  0.00000000E+00
  0.00000000E+00  0.00000000E+00  0.00000000E+00
  0.00000000E+00  0.00000000E+00  0.00000000E+00
