pymatgen with grid density = 1253 / number of atoms
0
Gamma
10 10 6
