60.0% N(Distort)=2 ~[0.5,0.5,0.5]
1.0
  12.5998379999999983    0.0000000000000004    0.0000000000000004
   0.0000000000000004   12.5998379999999983   -0.0000000000000004
  -0.0000000000000004   -0.0000000000000004   12.5998379999999983
Mg O
109 107
direct
   0.6719359826099596    0.0164400566803896   -0.0025562813959436 Mg
   0.8333333333333333    0.1666666666666667    1.0000000000000000 Mg
   0.8356993213461827    1.0223522002184962    0.1641323011046227 Mg
   0.3224763702131981    0.0044599364366762   -0.0124259056236310 Mg
   0.5248438668437096    0.1340167727506748    0.0208845527956899 Mg
   0.6714935292382217    0.3457211772833228   -0.0209526067947342 Mg
   0.8290737230186719    0.5128489518682409    0.9753351773185092 Mg
   0.5307753605772463    0.0092539101242298    0.1530654635934732 Mg
   0.6967619033007101    0.1763081968967317    0.1605143539601880 Mg
   0.8249444765516238    0.3144797978126356    0.1598155402881129 Mg
   0.6678441349996687   -0.0056457805668013    0.3237417201031659 Mg
   0.8449504921125517    0.1559476042385287    0.3796415419712277 Mg
   0.8423520676721215    1.0151203407271694    0.5092054547290127 Mg
  -0.0027962454393849   -0.0023682104945691    0.0159662326543710 Mg
   0.1516761188513556    0.1581437351787059   -0.0044274052897964 Mg
   0.3566457872141579    0.3334534413654867   -0.0178121539985677 Mg
   0.5195821126658364    0.4907331083168673    0.0076084841310087 Mg
   0.6626614499009673    0.7254616625571118   -0.0215653755304717 Mg
   0.8226249425207879    0.8704382245752839   -0.0012837202936239 Mg
   0.1724843102161345   -0.0221423696085073    0.1750324564477920 Mg
   0.3359719081256636    0.1876347892346502    0.1512737279113718 Mg
   0.4776744576681844    0.3195017286871462    0.1568706575147846 Mg
   0.6756488627947920    0.4933078403394213    0.1414320026228150 Mg
   0.8433678790605320    0.6769539845811419    0.1544628769089314 Mg
   0.3183821589240008   -0.0150205241584432    0.3484878045189175 Mg
   0.4687740645310768    0.1354223372062351    0.3220611397969652 Mg
   0.6701654439773029    0.3431718371566211    0.3731350620350338 Mg
   0.8400749075238267    0.5047504464244102    0.3115075973318260 Mg
   0.5264817242191930   -0.0225934438201039    0.4948394016462379 Mg
   0.6579744714226378    0.1743626093435610    0.5007357914790028 Mg
   0.8464827514090817    0.3559811689657592    0.4870678049401622 Mg
   0.6720201439916016   -0.0024667677096249    0.6700775855057055 Mg
   0.8364033035135947    0.2058149951870514    0.6212285893316808 Mg
   0.8576716074166062   -0.0090654437094253    0.8207126477673555 Mg
   0.0102455676011573    0.3077880300367918    1.0332269433876966 Mg
   0.1839166510119643    0.4848547942015494   -0.0009915804717498 Mg
   0.3300706474218187    0.6887817657532503    1.0058809744379613 Mg
   0.5233834698337644    0.8086604817728077    0.0029476840886530 Mg
   0.0134377621349437    0.1332623740650659    0.1278967862531620 Mg
   0.1829594957854487    0.3317346993073671    0.1637704881923950 Mg
   0.3269388176624556    0.5068118914564477    0.1499070662792010 Mg
   0.5129654466807297    0.6534692721138099    0.1594192382831234 Mg
   0.6642979453482933    0.8303618930169713    0.1793121789138270 Mg
   1.0164808067936588    0.9812929633312479    0.3336002447795711 Mg
   0.1465116238602761    0.2021818532093661    0.3162251362303404 Mg
   0.3341915681552951    0.3499972668448365    0.3007489189371820 Mg
   0.4976885055383915    0.5076170711789773    0.3243031142471741 Mg
   0.6400698582029773    0.6533508595608211    0.3538177471520095 Mg
   0.8371572308451820    0.8366458882925832    0.3287583678824977 Mg
   0.1620729388918773    0.0094211502107289    0.5242199570327232 Mg
   0.3699782383190668    0.1541342552752006    0.5016429572498610 Mg
   0.5007192716420399    0.3342633922174180    0.5118735288277851 Mg
   0.6672416241199332    0.5064675227609148    0.5101262493381716 Mg
   0.8435490313840430    0.6531887311298112    0.5086029717327227 Mg
   0.3595409872454715    0.9886507067439114    0.6989527097673376 Mg
   0.5333268828555893    0.1728080581020866    0.6556945895770077 Mg
   0.6424480723602698    0.3513236069613036    0.6357264693332551 Mg
   0.8482510741143169    0.5072640461102589    0.6448371472423767 Mg
   0.5118986534553537    0.0057500159877576    0.8077218390975758 Mg
   0.6718640191156817    0.1763640268000691    0.8313073684916723 Mg
   0.8332528876978229    0.3050056647768395    0.8231415302251932 Mg
   0.0117746563902956    0.6609769015321109    1.0174717323341020 Mg
   0.1329584304594093    0.8336008315504302   -0.0028368506247644 Mg
  -0.0260373464464091    0.5042985691752842    0.1664585098804379 Mg
   0.1712189099624925    0.6840510683008230    0.1607406158622437 Mg
   0.2997327314546295    0.8692709929912990    0.1634800463706654 Mg
   0.0003756749492440    0.3348931193801687    0.3381412044422755 Mg
   0.1663175272676400    0.5255293002585065    0.3510555243438510 Mg
   0.3315754951998071    0.6688060057944386    0.3281676977636762 Mg
   0.4714597833458996    0.7967657453941274    0.3070909210841739 Mg
  -0.0217527958430243    0.1620879629807760    0.5041325081178157 Mg
   0.1710337219527927    0.3277692890092420    0.5067374221604037 Mg
   0.3368047108744638    0.4906506123240823    0.4890855407566739 Mg
   0.4768381280557622    0.6384479366492546    0.5009106381720141 Mg
   0.6900617525528839    0.8561880613948165    0.5087052744237542 Mg
   0.9996866201589200    0.9972600208634080    0.6507842328390216 Mg
   0.1709112070645686    0.1895354938330067    0.6830609246812183 Mg
   0.3310831345955965    0.3385394436925248    0.6754854703552070 Mg
   0.5144592596322218    0.5170710602428062    0.6496263514675000 Mg
   0.7070755997270081    0.6648312247849610    0.6566051088715966 Mg
   0.8236155645846308    0.8443684096904878    0.6615404127427064 Mg
   0.1720889794614657   -0.0095423563694320    0.8344742692862359 Mg
   0.3293718489066910    0.1837481238928227    0.8369079707815539 Mg
   0.4946740253461156    0.3420247902415897    0.8432905764516520 Mg
   0.6842475953751032    0.4933628379501282    0.8157680289129393 Mg
   0.8125545493397489    0.6848503149793449    0.8513416856455879 Mg
   0.9861921265542333    0.8467740998765327    0.1676932342725559 Mg
  -0.0095570956985879    0.6725176820747796    0.3081892847392627 Mg
   0.1408961931676149    0.8331880532082443    0.3272673880957515 Mg
   0.0078031762199891    0.5005497572129012    0.5078439013667346 Mg
   0.1790410305150716    0.6610840901607689    0.4882668063132673 Mg
   0.3225932620014943    0.8573414820090406    0.4856373186867216 Mg
   1.0173053242709338    0.3591369902766963    0.6841451944103459 Mg
   0.1804970695884359    0.4872761286064469    0.6651307590740124 Mg
   0.3352100258269499    0.6566643763359791    0.6732732988127461 Mg
   0.4949927384626198    0.8451222643116085    0.6456894467961423 Mg
   0.0018591027417058    0.1683231877908859    0.8443551369445446 Mg
   0.1791745563568622    0.3366135724668353    0.8288502268170779 Mg
   0.3448038401869174    0.4983894224149615    0.8292354047351275 Mg
   0.4974910062223211    0.6440191410832764    0.8474525025056160 Mg
   0.6708051698708456    0.8394449828587327    0.8421095330793401 Mg
   1.0040081203291304    0.8146015303279270    0.4941864867465905 Mg
  -0.0125092031255732    0.6658786235886082    0.6601244046557679 Mg
   0.1454414132941013    0.8521051772398994    0.6859571529105668 Mg
  -0.0084747914260432    0.5206744070294036    0.8398519650226055 Mg
   0.1406438733711204    0.6556065683420252    0.8340951750745174 Mg
   0.3213629970453413    0.8043048414441614    0.8468058593125918 Mg
  -0.0039233000048759    0.8605559536807074    0.8290185720988688 Mg
   0.4994741608875265    0.5170807157516130    0.5040475052230086 Mg
   0.8333333333333333    0.1666666666666667    0.2666700952821776 O
   0.0014511419436909    0.3245668583441741    0.1649657003341421 O
   0.0230974273338496    0.1746099696586023    0.3455834765500032 O
   0.4823794501421869    0.1664064818989340    0.1628817059873743 O
   0.6659964781287242    0.3427232364040311    0.1568037764480977 O
   0.8313650390195856    0.5061582414864947    0.1384737337551455 O
  -0.0062201555331909    0.6708140450655565    0.1710015166534237 O
   0.6700921297641329    0.1810146812515938    0.3279861850484401 O
   0.8129658805798766    0.3243829021248086    0.3538243345684310 O
  -0.0207836068561358    0.5012739028514392    0.3108135613043093 O
   0.8417944424468705    0.2195579296345458    0.5078937268261919 O
  -0.0031524642950294    0.3278952039141453    0.5175553275734653 O
   0.0024933047360655    0.1788730547119704    0.6614654820407370 O
   0.1716854028553342    0.1374458232014765    0.1397554190603295 O
   0.3468795702180335    0.3769711813305767    0.1506265873010856 O
   0.5001507058020565    0.5163615252133346    0.1710561087683860 O
   0.6724273291801831    0.7042601722879551    0.1619646183179840 O
   0.8076530013978025    0.7949772575834807    0.1727769798559055 O
  -0.0075863579967233    0.0151497710413216    0.1706175401038977 O
   0.2993444863459789    0.1578491037473991    0.3278021906711665 O
   0.5026264480405792    0.3235447644535195    0.3350262004442734 O
   0.6296728862592134    0.5105463318070919    0.3271358404447814 O
   0.8402113538305913    0.6905203472919972    0.3435327097084936 O
  -0.0104813179285965    0.8279250539101836    0.3206342617711817 O
   0.5036315507952724    0.1499649882152635    0.4999238196281023 O
   0.6557716399674648    0.3118240603314735    0.5099307064703985 O
   0.8523401180284503    0.4917604660789069    0.5029680754421377 O
   0.0135063414441156    0.6443411968855560    0.4794495781539742 O
   0.6541496357201430    0.1600854798973325    0.6562377915274197 O
   0.8501046626129656    0.3201095673686679    0.6712157221614021 O
  -0.0185383918504487    0.4972197947821163    0.6575549889354115 O
   0.8333333333333333    0.1666666666666667    0.7333299047178224 O
  -0.0103475428855183    0.3351839012489731    0.8316962275561287 O
   0.0122235331794515    0.1505609455017307    0.0075720879489209 O
   0.1668194179329952    0.5144667558254001    0.1623275722831959 O
   0.3278142698060033    0.6561590092540688    0.1524791746226331 O
   0.5282940181886193    0.8371705335405311    0.1446439258980594 O
   0.7052117547190976    0.0224299788641790    0.1850228581808259 O
   0.1575069379441601    0.3419675703041364    0.3351438585784996 O
   0.3616690318026652    0.5106146185948512    0.3336511034083826 O
   0.4957117925791091    0.6866562623705037    0.3082860264730084 O
   0.6810121382119968    0.8475698312955509    0.3253911827227176 O
   0.8513542486220598    0.0127565599456002    0.3105378886922245 O
   0.1593102001677036    0.1736638388855989    0.4935252499253340 O
   0.3273500486154388    0.3220210735442878    0.4831107932463727 O
   0.6614052526081495    0.6987040277248984    0.5132254238763941 O
   0.8438001787902926    0.8338450474786978    0.5065948019156533 O
   0.0106275254444010   -0.0112339588661307    0.4886587473869355 O
   0.3345552435630307    0.1809173667250923    0.6482655855510892 O
   0.5084862521559830    0.3367435872513947    0.6946612198427421 O
   0.6442217022228203    0.5295318135575783    0.6698699488502384 O
   0.8321615659142038    0.6678602850187799    0.6605956674411803 O
   0.0126239871872207    0.8412967231994936    0.6425274520257037 O
   0.5087827927480789    0.1392113337741802    0.8122222619514891 O
   0.6765215750407253    0.3509526266936204    0.8248753935546081 O
   0.8306452989002627    0.5242413205747727    0.8411491348534845 O
  -0.0067517522576195    0.6757813366604452    0.8477410855353662 O
   0.6922224295735068    0.1883434796999585    0.0093948414536806 O
   0.8337702606986899    0.3284094698908724    0.0081608190865537 O
  -0.0027211891771292    0.5118149631076713    0.0142205062241294 O
   0.1756475487959682    0.8454046047358090    0.1487855334828499 O
   0.3296987597711994    0.0145664389564201    0.1381217107886686 O
   0.1677217989022614    0.6612275958444709    0.3219974173762351 O
   0.3325461485176182    0.8301228173625179    0.2976845875050856 O
   0.4814491702308783    0.0015969436534189    0.3337378583110308 O
   0.1656175498685445    0.5032547332906756    0.5148099443768346 O
   0.3423994273876844    0.6832663945799550    0.5060997782023774 O
   0.5163952934247731    0.8272101531312079    0.4961608787082869 O
   0.6602047714477289    0.0012787618939836    0.4943094825718414 O
   0.1539347392506728    0.3216949215436734    0.6656406065094485 O
   0.3450300280223550    0.5096606257545614    0.6727745890779151 O
   0.4832625496277982    0.6284049864149767    0.6971669682847180 O
   0.6471962033528090    0.8266563997767010    0.6528820836766637 O
   0.8386951752016817    0.0201260515513856    0.6799769110658147 O
   0.1678483709825060    0.1578523616007758    0.8334888840682939 O
   0.3385014590890467    0.3027002039661389    0.8495876292459996 O
   0.4933765787397317    0.5140842974396345    0.8506446384984496 O
   0.6580811515368321    0.6673892218766667    0.8271531042359650 O
   0.8484797243738602    0.8376053204071442    0.8488524419687690 O
   0.0147185857741471    0.0026392213021977    0.8249494163117369 O
   0.3168749943192360    0.1570150994305612   -0.0093223305997781 O
   0.4937988480595617    0.3294867368027958   -0.0109733603952976 O
   0.6673265740123949    0.4813307773768908   -0.0124029276982590 O
   0.8481605668005170    0.6563855760883567   -0.0005547476602478 O
  -0.0097933587943305    0.8350469628008077   -0.0104190721796297 O
   0.1964900291206817   -0.0031263197709603    0.3047315971796601 O
   0.1777651556274170    0.8752458598949887    0.4910476619618421 O
   0.3578131540382225   -0.0087416408409472    0.4925293197291012 O
   0.1492554567646600    0.6971061551533397    0.6903234166199368 O
   0.3508519049938573    0.8296209450906414    0.6901266938630245 O
   0.5074679200620282    0.0415050910640138    0.6560640636105706 O
   0.1609147467020298    0.4753227357836293    0.8271333621586130 O
   0.3448722458635560    0.6734016795971952    0.8431723188011484 O
   0.5429053844037788    0.8092118159732755    0.8390644657492943 O
   0.6706127563466223    0.0220501049220133    0.8255064570905957 O
   0.1671456955921664    0.3367020661605329   -0.0018096439595467 O
   0.3248281272702058    0.5019814447478599   -0.0119571395351159 O
   0.4862030814084032    0.6519431237745825   -0.0093671706374624 O
   0.6862759702607404    0.8613714147490533   -0.0101896059317537 O
   0.7974596556664251    0.0224929625537213   -0.0003223755784655 O
   0.1896641076939803   -0.0167766113667795    0.6578358144521427 O
   0.1703889150270981    0.8640914789408014    0.8542062225659527 O
   0.3424190032606668    0.0110260937351232    0.8607859854645109 O
   0.1580231026119926    0.6415587196437026   -0.0122997135703760 O
   0.3225529049957330    0.8560311871896721    0.0053621378227681 O
   0.4629716564838197   -0.0077908299914743    0.0087751383001663 O
   0.1615954417548481    0.0140760676396565    0.0341015174232998 O
