KPOINTS from doped, with reciprocal_density = 855/Å⁻³
0
Gamma
8 8 8
