20.0% N(Distort)=3 ~[0.5,0.5,0.5]       
   1.00000000000000     
    12.5998379999999983    0.0000000000000004    0.0000000000000004
     0.0000000000000004   12.5998379999999983   -0.0000000000000004
    -0.0000000000000004   -0.0000000000000004   12.5998379999999983
   Mg   O 
   109   107
Direct
  0.6659745497285182 -0.0003594610901293  0.0001601058500147
  0.8326320863343702  0.1659454844816876  0.0002334233200659
  0.8325001850803866 -0.0004012295194447  0.1665435287637839
  0.3316170812268972 -0.0003309912040851  0.0001335861599451
  0.4987974915082369  0.1650067829156624 -0.0013804428196805
  0.6663542718250267  0.3323751797775216 -0.0007477145051472
  0.8328830906154625  0.4995035914892944  0.0000980550776803
  0.4986627249709105 -0.0002355525369995  0.1661161043234935
  0.6661958824961463  0.1654515469249120  0.1663301923355000
  0.8324685486272293  0.3324321320635508  0.1665733343389059
  0.6658607489340099  0.0005475612469081  0.3331992085579399
  0.8327114613295277  0.1654561315751406  0.3328521393319811
  0.8329152011170859  0.9997659597200672  0.5003720781523744
 -0.0011318088054548 -0.0003772714297906  0.0001545319660553
  0.1652095500407847  0.1660041940104994 -0.0002046560335652
  0.3314300591661259  0.3322444376819825 -0.0016884428689845
  0.4986001357914823  0.4994153379859644 -0.0041305510293127
  0.6658477466303843  0.6666394447725775 -0.0006696150966871
  0.8325030358366214  0.8332415155690450  0.0002165882137002
  0.1651210826409470 -0.0004925331075052  0.1664149486189309
  0.3313006799917043  0.1653797444964904  0.1656736214131909
  0.4989655924842468  0.3263562527810487  0.1588996152191851
  0.6662690905984529  0.4992479982791519  0.1633126118282262
  0.8335884697931869  0.6665947742331022  0.1654671473819746
  0.3315186464145235  0.0005877492014315  0.3326735071345820
  0.4985742574553034  0.1648887680857835  0.3320431503437778
  0.6657358307532039  0.3311683543141074  0.3332694211576178
  0.8357254134482650  0.4992395542582435  0.3327663340840050
  0.4986180393908492  0.0039660543134081  0.5004368827530880
  0.6669675315231988  0.1649077712734744  0.5004608586596959
  0.8400097333960101  0.3264080633871013  0.5000574276296929
  0.6663457376409004  0.0006246785444013  0.6674822085780905
  0.8333296984694561  0.1654029594208953  0.6676966954787089
  0.8326049866192293 -0.0004503383372315  0.8338808663281627
 -0.0010823515186322  0.3324637320086569  0.0000817739273673
  0.1641855198156951  0.4996185424236853 -0.0013563219309454
  0.3315602456018910  0.6671300407940752 -0.0007671932605674
  0.4986976045832489  0.8336928639483996  0.0000798778938270
 -0.0012243710236249  0.1659433761844787  0.1664144054868420
  0.1645427648645516  0.3321329788885639  0.1656799263736651
  0.3255268807412068  0.4997672627315131  0.1589322067022642
  0.4984449129844101  0.6671061255552333  0.1633248448830572
  0.6657675485343549  0.8344357286330131  0.1654059309932250
 -0.0011235960060288 -0.0003769827030155  0.3330811781724615
  0.1645835548895007  0.1653957867644492  0.3328200029516861
  0.3279321711105940  0.3287073315528443  0.3327901093298319
  0.4797993645243590  0.4805632743470300  0.3011097315972525
  0.6719546222264666  0.6728102190677505  0.3270798783055582
  0.8336170839177396  0.8344147477859806  0.3332681419539006
  0.1642178983899840  0.0011398320236123  0.5001925692049292
  0.3314357842365770  0.1664203547292848  0.5001697655801932
  0.4988897062683881  0.3292922639658821  0.5001169897234806
  0.6977725160362290  0.4807541821066774  0.5191037371231333
  0.8357315095162861  0.6671089013869148  0.5006069893929499
  0.3314333082097130  0.0014952246561097  0.6675923373484161
  0.4988310650895655  0.1664618117971234  0.6675508273151098
  0.6662054863798615  0.3287889819053303  0.6710541036013588
  0.8400225609360378  0.4997877882664084  0.6734257866381006
  0.4988077064951257  0.0011825495590858  0.8348200501747906
  0.6661810153823272  0.1654376628657324  0.8343872047199919
  0.8333222417191148  0.3321521306388850  0.8344405748418410
  0.9988721377764285  0.6667251922929657  0.0001745199628381
  0.1651362750445126  0.8333443655983233  0.0002759821209978
 -0.0010721085331695  0.4994872389326033  0.1661669784830954
  0.1646294405587804  0.6669373056868259  0.1663707653276535
  0.3315832056378556  0.8332191502685432  0.1665887688399891
 -0.0002220184100970  0.3323781479609301  0.3326991479953209
  0.1640891775302762  0.4993781563318307  0.3320981192554662
  0.3304254583617957  0.6665365005044139  0.3332881860790989
  0.4984513359692354  0.8366077248136806  0.3327143235466576
  0.0003643668481136  0.1650046891928721  0.5002050728035510
  0.1656193543718425  0.3322869975782022  0.5001871403000333
  0.3285784928028710  0.4996716366982502  0.5001244260140632
  0.4800833517918590  0.6986538201313284  0.5190814999985013
  0.6663309649116202  0.8366170254038756  0.5006109993609388
 -0.0010835080649598 -0.0003028919528218  0.6673645824635375
  0.1656609017698618  0.1664832424197711  0.6671677798428375
  0.3322985607294107  0.3331093499588214  0.6667172576637327
  0.4989192091674096  0.4996985657014306  0.6704580245811500
  0.6657498924109730  0.6665630437294100  0.6686594213052750
  0.8324535550297257  0.8332577564053840  0.6674308554568841
  0.1652030817040482  0.0000024269546452  0.8338046795055570
  0.3318285317627879  0.1664804050205232  0.8333407564007573
  0.4988201803784106  0.3322981778224917  0.8333940595539191
  0.6669458793533339  0.4994031504316140  0.8349443687126707
  0.8326863789573776  0.6669660870525091  0.8343607069936851
 -0.0011821180026162  0.8332381417446335  0.1665701378904745
 -0.0002867426395299  0.6666304782812877  0.3332281183464306
  0.1646398094741851  0.8334393067095552  0.3328891915935064
  0.0031298744274968  0.4994390742638395  0.5004349063395769
  0.1641455759342288  0.6677614421500685  0.5004448496768829
  0.3256375714926770  0.8408521014814206  0.5000462807339986
  0.0006606358661710  0.3322775580248460  0.6675581814232375
  0.1656650638809969  0.4996748611276959  0.6674980087607039
  0.3280618535237980  0.6670388119185823  0.6709926920801597
  0.4989813125682982  0.8408953182094037  0.6734522380482502
 -0.0007830805742799  0.1660305525171329  0.8337870168970174
  0.1656896122128554  0.3326765716200829  0.8333113673720206
  0.3314511100279307  0.4996687753721604  0.8333905069507341
  0.4985853882999608  0.6677788337689913  0.8349270974205304
  0.6661702178374219  0.8334793641611129  0.8343730702598772
  0.9989603760637877  0.8336848049948763  0.5003685835121690
  0.9998072185223528  0.6671441206178124  0.6674392086448439
  0.1646087277458670  0.8341312381683119  0.6676833685595378
  0.0003563183847000  0.4996351629645396  0.8347887875472809
  0.1646498534105730  0.6669717332360895  0.8343464861915623
  0.3313282553016695  0.8341343930886751  0.8344438114021828
 -0.0011991519468488  0.8333569406553702  0.8338741756897867
  0.5561736716000752  0.5569583443989288  0.4426483022194019
  0.8319637007626822  0.1663957061372097  0.1670506900855171
 -0.0015424079520246  0.3329869978321531  0.1667989514452773
 -0.0013644893341318  0.1661685759054420  0.3333905169642103
  0.4987972654803433  0.1651446064689737  0.1655254878296926
  0.6646083690987391  0.3338284612342030  0.1672278156201544
  0.8308194279923806  0.4997343820390535  0.1681945835214840
 -0.0014544234630969  0.6662107483282362  0.1670563806582935
  0.6655172348972473  0.1666516054355625  0.3334807380300219
  0.8317548889937987  0.3338353949351605  0.3343985698297048
 -0.0002438497163811  0.4996015919538403  0.3330410290891641
  0.8334636727963839  0.1651497758794693  0.5002102831738706
  0.0012806142060459  0.3320405206554388  0.5000878074588826
 -0.0007830811901930  0.1663031618799676  0.6668322087207016
  0.1654161651163368  0.1662274924315146  0.1665524019351256
  0.3326699939923439  0.3335256170512856  0.1659757060273093
  0.4979791623498657  0.4987498271807738  0.1557593751440958
  0.6646678145301126  0.6654771139938909  0.1669130751638619
  0.8316210862040703  0.8324283657704095  0.1674053112362597
 -0.0013662814929595 -0.0005902048684010  0.1668966733443583
  0.3317429968903775  0.1659362099342628  0.3329480708358659
  0.4975878654701386  0.3298856135777467  0.3306782792494971
  0.6591699354914619  0.4999974732224764  0.3398823687255283
  0.8320889123447828  0.6654793874609066  0.3343896907158169
 -0.0014351956092641  0.8327620830419488  0.3336226097327004
  0.4992448064252735  0.1672545311099600  0.4997212890918156
  0.6683334241161065  0.3299457848418705  0.5014204545461625
  0.8431839281182240  0.4988010642611232  0.5010320468006193
 -0.0002180867032411  0.6668079423274703  0.5002236227149051
  0.6660370302188681  0.1660052169229842  0.6672550247875598
  0.8330057282108591  0.3335582286885267  0.6662980799087544
  0.0012858630690560  0.4997585178306020  0.6677782345576835
  0.8324260754367389  0.1662552611733877  0.8335648700370056
  0.9992192769876188  0.3329953508037107  0.8335059742164130
 -0.0012081771044012  0.1662163290242296  0.0001892638219053
  0.1642798367287254  0.4995976218210657  0.1655749007084974
  0.3330325422753867  0.6653903280236581  0.1672772339817892
  0.4989323920137374  0.8316684902428159  0.1681884409918808
  0.6654151720334121  0.9993881208080774  0.1670345825138773
  0.1651214320035377  0.3325527107284225  0.3329720916207615
  0.3291249116594335  0.4983805133895048  0.3306957185559380
  0.4993003366492615  0.6599593373064599  0.3398674556622148
  0.6646758566036851  0.8329891060028691  0.3343618995011490
  0.8319902814234652  0.9993871279940376  0.3336181117236905
  0.1658686279808619  0.1666936843889023  0.4999189476136859
  0.3332751945975914  0.3340929842451312  0.4991401509754145
  0.6590996790409369  0.6598816221469993  0.4997622629389171
  0.8308324458657040  0.8316697537722311  0.5000931212401912
 -0.0013905709302136 -0.0006015195532395  0.5001415743146193
  0.3325071834372785  0.1673671722062593  0.6664469747800751
  0.4998279649337924  0.3341183700446208  0.6656996026801489
  0.6683329610885572  0.4984172214722225  0.6699128487021102
  0.8317485796189478  0.6654269777876178  0.6659810346645967
 -0.0015231216520317  0.8330033934541965  0.6668363144303050
  0.4990697797669200  0.1667197145866227  0.8331096740529171
  0.6660237395013281  0.3326043767743693  0.8338726860438718
  0.8334343448424789  0.4996275571147834  0.8347018856825278
 -0.0013551185620151  0.6663994650223105  0.8336005350844964
  0.6656167360323989  0.1661816611903065  0.0003669546201730
  0.8322075502442486  0.3329997125525580  0.0005402946332977
 -0.0014178031784664  0.4996884815563082  0.0004134006158919
  0.1655650624968422  0.8326862070502368  0.1670959478632340
  0.3321349892268496  0.9992522813097034  0.1667989403841172
  0.1658246499838000  0.6662902006781702  0.3335452368536452
  0.3330487238950573  0.8325498449326814  0.3344091999203808
  0.4987806936986258  0.0006170443160062  0.3329994170252996
  0.1664455724649679  0.5000824524233757  0.4997417232787165
  0.3292722258802922  0.6690916244906732  0.5013803067193173
  0.4980395005947807  0.8441007233014223  0.5010337388156538
  0.6659976829463897  0.0006421716812926  0.5002333039916874
  0.1665171226580640  0.3333802081954964  0.6664480102616589
  0.3333057725875561  0.5006601175120052  0.6656880153617237
  0.4976482702966906  0.6691592481917434  0.6698510383353605
  0.6645997370482676  0.8326066525255610  0.6659738240932598
  0.8321951171922860 -0.0007240231668516  0.6668319628916224
  0.1656502699226843  0.1664959572745586  0.8333140475631884
  0.3325173976546530  0.3333767148034767  0.8324532909010220
  0.4992409818749300  0.5000953185755975  0.8325543924036647
  0.6654944485756791  0.6663175145229153  0.8331951868239773
  0.8319419427155914  0.8327332236577265  0.8334286487685099
 -0.0012211545074742 -0.0003990480148625  0.8335839259520154
  0.3321528292042881  0.1662879795502065 -0.0002632058373470
  0.4989066219633590  0.3320228479737920 -0.0023205974407860
  0.6659759988258468  0.4996007581851278 -0.0007407288000121
  0.8319968734189487  0.6662177122730698  0.0004675973274185
 -0.0013516714155701  0.8328700017112899  0.0003761069361209
  0.1653483668689054 -0.0005827872573850  0.3333966927370676
  0.1643705965818823  0.8342517769369150  0.5002048728925427
  0.3312298216292479  0.0020894567696378  0.5000701564587320
  0.1652133757424469  0.6668564776035065  0.6671918237090652
  0.3327411759687771  0.8338591090246462  0.6662619683129114
  0.4989038179295082  0.0021571340437997  0.6678150201246800
  0.1658693581301311  0.4999157801630890  0.8330931074999357
  0.3317964009470731  0.6668630597054565  0.8338163253121337
  0.4988003409429737  0.8342966687745238  0.8346729546032209
  0.6656076046681502 -0.0005512954396460  0.8336443622177399
  0.1654598165959755  0.3329996483293511 -0.0002708523886430
  0.3312052664153303  0.4997177854570764 -0.0022832389499030
  0.4987772840842607  0.6668156470279574 -0.0007446848478534
  0.6654116141129668  0.8327801696258900  0.0004461307472524
  0.8321182911172116 -0.0005722763110267  0.0003658252362377
  0.1654690983674500  0.0000590922101378  0.6668270424610524
  0.1654291650311268  0.8332097136557358  0.8335694572759665
  0.3321381793356243  0.0000711881562959  0.8335488714565890
  0.1653781465174385  0.6663810842962318  0.0003631184202887
  0.3321636751875209  0.8329979965105200  0.0005690853485221
  0.4988751233638782 -0.0005794545088898  0.0004204429163796
  0.1653864577640211 -0.0004329428944165  0.0002130662154843
 
  0.00000000E+00  0.00000000E+00  0.00000000E+00
  0.00000000E+00  0.00000000E+00  0.00000000E+00
  0.00000000E+00  0.00000000E+00  0.00000000E+00
  0.00000000E+00  0.00000000E+00  0.00000000E+00
  0.00000000E+00  0.00000000E+00  0.00000000E+00
  0.00000000E+00  0.00000000E+00  0.00000000E+00
  0.00000000E+00  0.00000000E+00  0.00000000E+00
  0.00000000E+00  0.00000000E+00  0.00000000E+00
  0.00000000E+00  0.00000000E+00  0.00000000E+00
  0.00000000E+00  0.00000000E+00  0.00000000E+00
  0.00000000E+00  0.00000000E+00  0.00000000E+00
  0.00000000E+00  0.00000000E+00  0.00000000E+00
  0.00000000E+00  0.00000000E+00  0.00000000E+00
  0.00000000E+00  0.00000000E+00  0.00000000E+00
  0.00000000E+00  0.00000000E+00  0.00000000E+00
  0.00000000E+00  0.00000000E+00  0.00000000E+00
  0.00000000E+00  0.00000000E+00  0.00000000E+00
  0.00000000E+00  0.00000000E+00  0.00000000E+00
  0.00000000E+00  0.00000000E+00  0.00000000E+00
  0.00000000E+00  0.00000000E+00  0.00000000E+00
  0.00000000E+00  0.00000000E+00  0.00000000E+00
  0.00000000E+00  0.00000000E+00  0.00000000E+00
  0.00000000E+00  0.00000000E+00  0.00000000E+00
  0.00000000E+00  0.00000000E+00  0.00000000E+00
  0.00000000E+00  0.00000000E+00  0.00000000E+00
  0.00000000E+00  0.00000000E+00  0.00000000E+00
  0.00000000E+00  0.00000000E+00  0.00000000E+00
  0.00000000E+00  0.00000000E+00  0.00000000E+00
  0.00000000E+00  0.00000000E+00  0.00000000E+00
  0.00000000E+00  0.00000000E+00  0.00000000E+00
  0.00000000E+00  0.00000000E+00  0.00000000E+00
  0.00000000E+00  0.00000000E+00  0.00000000E+00
  0.00000000E+00  0.00000000E+00  0.00000000E+00
  0.00000000E+00  0.00000000E+00  0.00000000E+00
  0.00000000E+00  0.00000000E+00  0.00000000E+00
  0.00000000E+00  0.00000000E+00  0.00000000E+00
  0.00000000E+00  0.00000000E+00  0.00000000E+00
  0.00000000E+00  0.00000000E+00  0.00000000E+00
  0.00000000E+00  0.00000000E+00  0.00000000E+00
  0.00000000E+00  0.00000000E+00  0.00000000E+00
  0.00000000E+00  0.00000000E+00  0.00000000E+00
  0.00000000E+00  0.00000000E+00  0.00000000E+00
  0.00000000E+00  0.00000000E+00  0.00000000E+00
  0.00000000E+00  0.00000000E+00  0.00000000E+00
  0.00000000E+00  0.00000000E+00  0.00000000E+00
  0.00000000E+00  0.00000000E+00  0.00000000E+00
  0.00000000E+00  0.00000000E+00  0.00000000E+00
  0.00000000E+00  0.00000000E+00  0.00000000E+00
  0.00000000E+00  0.00000000E+00  0.00000000E+00
  0.00000000E+00  0.00000000E+00  0.00000000E+00
  0.00000000E+00  0.00000000E+00  0.00000000E+00
  0.00000000E+00  0.00000000E+00  0.00000000E+00
  0.00000000E+00  0.00000000E+00  0.00000000E+00
  0.00000000E+00  0.00000000E+00  0.00000000E+00
  0.00000000E+00  0.00000000E+00  0.00000000E+00
  0.00000000E+00  0.00000000E+00  0.00000000E+00
  0.00000000E+00  0.00000000E+00  0.00000000E+00
  0.00000000E+00  0.00000000E+00  0.00000000E+00
  0.00000000E+00  0.00000000E+00  0.00000000E+00
  0.00000000E+00  0.00000000E+00  0.00000000E+00
  0.00000000E+00  0.00000000E+00  0.00000000E+00
  0.00000000E+00  0.00000000E+00  0.00000000E+00
  0.00000000E+00  0.00000000E+00  0.00000000E+00
  0.00000000E+00  0.00000000E+00  0.00000000E+00
  0.00000000E+00  0.00000000E+00  0.00000000E+00
  0.00000000E+00  0.00000000E+00  0.00000000E+00
  0.00000000E+00  0.00000000E+00  0.00000000E+00
  0.00000000E+00  0.00000000E+00  0.00000000E+00
  0.00000000E+00  0.00000000E+00  0.00000000E+00
  0.00000000E+00  0.00000000E+00  0.00000000E+00
  0.00000000E+00  0.00000000E+00  0.00000000E+00
  0.00000000E+00  0.00000000E+00  0.00000000E+00
  0.00000000E+00  0.00000000E+00  0.00000000E+00
  0.00000000E+00  0.00000000E+00  0.00000000E+00
  0.00000000E+00  0.00000000E+00  0.00000000E+00
  0.00000000E+00  0.00000000E+00  0.00000000E+00
  0.00000000E+00  0.00000000E+00  0.00000000E+00
  0.00000000E+00  0.00000000E+00  0.00000000E+00
  0.00000000E+00  0.00000000E+00  0.00000000E+00
  0.00000000E+00  0.00000000E+00  0.00000000E+00
  0.00000000E+00  0.00000000E+00  0.00000000E+00
  0.00000000E+00  0.00000000E+00  0.00000000E+00
  0.00000000E+00  0.00000000E+00  0.00000000E+00
  0.00000000E+00  0.00000000E+00  0.00000000E+00
  0.00000000E+00  0.00000000E+00  0.00000000E+00
  0.00000000E+00  0.00000000E+00  0.00000000E+00
  0.00000000E+00  0.00000000E+00  0.00000000E+00
  0.00000000E+00  0.00000000E+00  0.00000000E+00
  0.00000000E+00  0.00000000E+00  0.00000000E+00
  0.00000000E+00  0.00000000E+00  0.00000000E+00
  0.00000000E+00  0.00000000E+00  0.00000000E+00
  0.00000000E+00  0.00000000E+00  0.00000000E+00
  0.00000000E+00  0.00000000E+00  0.00000000E+00
  0.00000000E+00  0.00000000E+00  0.00000000E+00
  0.00000000E+00  0.00000000E+00  0.00000000E+00
  0.00000000E+00  0.00000000E+00  0.00000000E+00
  0.00000000E+00  0.00000000E+00  0.00000000E+00
  0.00000000E+00  0.00000000E+00  0.00000000E+00
  0.00000000E+00  0.00000000E+00  0.00000000E+00
  0.00000000E+00  0.00000000E+00  0.00000000E+00
  0.00000000E+00  0.00000000E+00  0.00000000E+00
  0.00000000E+00  0.00000000E+00  0.00000000E+00
  0.00000000E+00  0.00000000E+00  0.00000000E+00
  0.00000000E+00  0.00000000E+00  0.00000000E+00
  0.00000000E+00  0.00000000E+00  0.00000000E+00
  0.00000000E+00  0.00000000E+00  0.00000000E+00
  0.00000000E+00  0.00000000E+00  0.00000000E+00
  0.00000000E+00  0.00000000E+00  0.00000000E+00
  0.00000000E+00  0.00000000E+00  0.00000000E+00
  0.00000000E+00  0.00000000E+00  0.00000000E+00
  0.00000000E+00  0.00000000E+00  0.00000000E+00
  0.00000000E+00  0.00000000E+00  0.00000000E+00
  0.00000000E+00  0.00000000E+00  0.00000000E+00
  0.00000000E+00  0.00000000E+00  0.00000000E+00
  0.00000000E+00  0.00000000E+00  0.00000000E+00
  0.00000000E+00  0.00000000E+00  0.00000000E+00
  0.00000000E+00  0.00000000E+00  0.00000000E+00
  0.00000000E+00  0.00000000E+00  0.00000000E+00
  0.00000000E+00  0.00000000E+00  0.00000000E+00
  0.00000000E+00  0.00000000E+00  0.00000000E+00
  0.00000000E+00  0.00000000E+00  0.00000000E+00
  0.00000000E+00  0.00000000E+00  0.00000000E+00
  0.00000000E+00  0.00000000E+00  0.00000000E+00
  0.00000000E+00  0.00000000E+00  0.00000000E+00
  0.00000000E+00  0.00000000E+00  0.00000000E+00
  0.00000000E+00  0.00000000E+00  0.00000000E+00
  0.00000000E+00  0.00000000E+00  0.00000000E+00
  0.00000000E+00  0.00000000E+00  0.00000000E+00
  0.00000000E+00  0.00000000E+00  0.00000000E+00
  0.00000000E+00  0.00000000E+00  0.00000000E+00
  0.00000000E+00  0.00000000E+00  0.00000000E+00
  0.00000000E+00  0.00000000E+00  0.00000000E+00
  0.00000000E+00  0.00000000E+00  0.00000000E+00
  0.00000000E+00  0.00000000E+00  0.00000000E+00
  0.00000000E+00  0.00000000E+00  0.00000000E+00
  0.00000000E+00  0.00000000E+00  0.00000000E+00
  0.00000000E+00  0.00000000E+00  0.00000000E+00
  0.00000000E+00  0.00000000E+00  0.00000000E+00
  0.00000000E+00  0.00000000E+00  0.00000000E+00
  0.00000000E+00  0.00000000E+00  0.00000000E+00
  0.00000000E+00  0.00000000E+00  0.00000000E+00
  0.00000000E+00  0.00000000E+00  0.00000000E+00
  0.00000000E+00  0.00000000E+00  0.00000000E+00
  0.00000000E+00  0.00000000E+00  0.00000000E+00
  0.00000000E+00  0.00000000E+00  0.00000000E+00
  0.00000000E+00  0.00000000E+00  0.00000000E+00
  0.00000000E+00  0.00000000E+00  0.00000000E+00
  0.00000000E+00  0.00000000E+00  0.00000000E+00
  0.00000000E+00  0.00000000E+00  0.00000000E+00
  0.00000000E+00  0.00000000E+00  0.00000000E+00
  0.00000000E+00  0.00000000E+00  0.00000000E+00
  0.00000000E+00  0.00000000E+00  0.00000000E+00
  0.00000000E+00  0.00000000E+00  0.00000000E+00
  0.00000000E+00  0.00000000E+00  0.00000000E+00
  0.00000000E+00  0.00000000E+00  0.00000000E+00
  0.00000000E+00  0.00000000E+00  0.00000000E+00
  0.00000000E+00  0.00000000E+00  0.00000000E+00
  0.00000000E+00  0.00000000E+00  0.00000000E+00
  0.00000000E+00  0.00000000E+00  0.00000000E+00
  0.00000000E+00  0.00000000E+00  0.00000000E+00
  0.00000000E+00  0.00000000E+00  0.00000000E+00
  0.00000000E+00  0.00000000E+00  0.00000000E+00
  0.00000000E+00  0.00000000E+00  0.00000000E+00
  0.00000000E+00  0.00000000E+00  0.00000000E+00
  0.00000000E+00  0.00000000E+00  0.00000000E+00
  0.00000000E+00  0.00000000E+00  0.00000000E+00
  0.00000000E+00  0.00000000E+00  0.00000000E+00
  0.00000000E+00  0.00000000E+00  0.00000000E+00
  0.00000000E+00  0.00000000E+00  0.00000000E+00
  0.00000000E+00  0.00000000E+00  0.00000000E+00
  0.00000000E+00  0.00000000E+00  0.00000000E+00
  0.00000000E+00  0.00000000E+00  0.00000000E+00
  0.00000000E+00  0.00000000E+00  0.00000000E+00
  0.00000000E+00  0.00000000E+00  0.00000000E+00
  0.00000000E+00  0.00000000E+00  0.00000000E+00
  0.00000000E+00  0.00000000E+00  0.00000000E+00
  0.00000000E+00  0.00000000E+00  0.00000000E+00
  0.00000000E+00  0.00000000E+00  0.00000000E+00
  0.00000000E+00  0.00000000E+00  0.00000000E+00
  0.00000000E+00  0.00000000E+00  0.00000000E+00
  0.00000000E+00  0.00000000E+00  0.00000000E+00
  0.00000000E+00  0.00000000E+00  0.00000000E+00
  0.00000000E+00  0.00000000E+00  0.00000000E+00
  0.00000000E+00  0.00000000E+00  0.00000000E+00
  0.00000000E+00  0.00000000E+00  0.00000000E+00
  0.00000000E+00  0.00000000E+00  0.00000000E+00
  0.00000000E+00  0.00000000E+00  0.00000000E+00
  0.00000000E+00  0.00000000E+00  0.00000000E+00
  0.00000000E+00  0.00000000E+00  0.00000000E+00
  0.00000000E+00  0.00000000E+00  0.00000000E+00
  0.00000000E+00  0.00000000E+00  0.00000000E+00
  0.00000000E+00  0.00000000E+00  0.00000000E+00
  0.00000000E+00  0.00000000E+00  0.00000000E+00
  0.00000000E+00  0.00000000E+00  0.00000000E+00
  0.00000000E+00  0.00000000E+00  0.00000000E+00
  0.00000000E+00  0.00000000E+00  0.00000000E+00
  0.00000000E+00  0.00000000E+00  0.00000000E+00
  0.00000000E+00  0.00000000E+00  0.00000000E+00
  0.00000000E+00  0.00000000E+00  0.00000000E+00
  0.00000000E+00  0.00000000E+00  0.00000000E+00
  0.00000000E+00  0.00000000E+00  0.00000000E+00
  0.00000000E+00  0.00000000E+00  0.00000000E+00
  0.00000000E+00  0.00000000E+00  0.00000000E+00
  0.00000000E+00  0.00000000E+00  0.00000000E+00
  0.00000000E+00  0.00000000E+00  0.00000000E+00
  0.00000000E+00  0.00000000E+00  0.00000000E+00
  0.00000000E+00  0.00000000E+00  0.00000000E+00
  0.00000000E+00  0.00000000E+00  0.00000000E+00
  0.00000000E+00  0.00000000E+00  0.00000000E+00
  0.00000000E+00  0.00000000E+00  0.00000000E+00
  0.00000000E+00  0.00000000E+00  0.00000000E+00
  0.00000000E+00  0.00000000E+00  0.00000000E+00
  0.00000000E+00  0.00000000E+00  0.00000000E+00
  0.00000000E+00  0.00000000E+00  0.00000000E+00
  0.00000000E+00  0.00000000E+00  0.00000000E+00
  0.00000000E+00  0.00000000E+00  0.00000000E+00
