KPOINTS from doped, with reciprocal_density = 830/Å⁻³
0
Gamma
19 19 11
