# May want to change NCORE, KPAR, AEXX, ENCUT, IBRION, LREAL, NUPDOWN, ISPIN = Typical variable parameters
AEXX = 0.0
ALGO = Normal  # change to all if zhegv, fexcp/f or zbrent errors encountered
EDIFF = 4e-07
EDIFFG = -0.01
ENCUT = 585.0
GGA = Ps
HFSCREEN = 0.0
IBRION = 2
ICHARG = 1
ISIF = 2
ISMEAR = 0
ISPIN = 2
KPAR = 1
LASPH = True
LHFCALC = False
LORBIT = 11
LREAL = Auto
NCORE = 8
NEDOS = 2000
NELM = 120
NSW = 100
NUPDOWN = 2
PREC = Accurate
SIGMA = 0.05
