Gamma-only kpoints for molecule-in-a-box
0
Gamma
1 1 1
