60.0% N(Distort)=1 ~[0.5,0.5,0.5]
1.0
  12.5998379999999983    0.0000000000000004    0.0000000000000004
   0.0000000000000004   12.5998379999999983   -0.0000000000000004
  -0.0000000000000004   -0.0000000000000004   12.5998379999999983
Mg O
109 107
direct
   0.6719359826099596    0.0164400566803896   -0.0025562813959436 Mg
   0.8333333333333333    0.1666666666666667    1.0000000000000000 Mg
   0.8356993213461827    1.0223522002184962    0.1641323011046227 Mg
   0.3224763702131981    0.0044599364366762   -0.0124259056236310 Mg
   0.5248438668437096    0.1340167727506748    0.0208845527956899 Mg
   0.6714935292382217    0.3457211772833228   -0.0209526067947342 Mg
   0.8290737230186719    0.5128489518682409    0.9753351773185092 Mg
   0.5307753605772463    0.0092539101242298    0.1530654635934732 Mg
   0.6967619033007101    0.1763081968967317    0.1605143539601880 Mg
   0.8249444765516238    0.3144797978126356    0.1598155402881129 Mg
   0.6678441349996687   -0.0056457805668013    0.3237417201031659 Mg
   0.8449504921125517    0.1559476042385287    0.3796415419712277 Mg
   0.8423520676721215    1.0151203407271694    0.5092054547290127 Mg
  -0.0027962454393849   -0.0023682104945691    0.0159662326543710 Mg
   0.1516761188513556    0.1581437351787059   -0.0044274052897964 Mg
   0.3566457872141579    0.3334534413654867   -0.0178121539985677 Mg
   0.5195821126658364    0.4907331083168673    0.0076084841310087 Mg
   0.6626614499009673    0.7254616625571118   -0.0215653755304717 Mg
   0.8226249425207879    0.8704382245752839   -0.0012837202936239 Mg
   0.1724843102161345   -0.0221423696085073    0.1750324564477920 Mg
   0.3359719081256636    0.1876347892346502    0.1512737279113718 Mg
   0.4776744576681844    0.3195017286871462    0.1568706575147846 Mg
   0.6756488627947920    0.4933078403394213    0.1414320026228150 Mg
   0.8433678790605320    0.6769539845811419    0.1544628769089314 Mg
   0.3183821589240008   -0.0150205241584432    0.3484878045189175 Mg
   0.4687740645310768    0.1354223372062351    0.3220611397969652 Mg
   0.6701654439773029    0.3431718371566211    0.3731350620350338 Mg
   0.8400749075238267    0.5047504464244102    0.3115075973318260 Mg
   0.5264817242191930   -0.0225934438201039    0.4948394016462379 Mg
   0.6579744714226378    0.1743626093435610    0.5007357914790028 Mg
   0.8464827514090817    0.3559811689657592    0.4870678049401622 Mg
   0.6720201439916016   -0.0024667677096249    0.6700775855057055 Mg
   0.8515498345252505    0.1802706595818496    0.6879784778127217 Mg
   0.8367576752974656   -0.0158980087060155    0.8212480729790740 Mg
  -0.0164816767744172    0.3497389033218126    0.9966894919926826 Mg
   0.1377224129517075    0.4940564787697870    0.0003920079332884 Mg
   0.3702445561015519    0.6667423729817158    0.9750515460586913 Mg
   0.5081096295499687    0.8353809242546980   -0.0065517379311395 Mg
   0.0077911761063580    0.1673376067363571    0.1748677377652391 Mg
   0.1560703714432414    0.3053912494018254    0.1894555715797303 Mg
   0.3594235765852130    0.5002779808413176    0.1752184759633596 Mg
   0.4921513793632286    0.6726671755820568    0.1681512133784397 Mg
   0.6707516093328195    0.8506093431224389    0.1851551064566199 Mg
   1.0052095064105437    0.9932637214414104    0.3383242232161446 Mg
   0.1599992397936390    0.1653146191763057    0.3475889288849995 Mg
   0.3156683819385050    0.3383020834896490    0.3044104328100714 Mg
   0.4823363717487404    0.4702707897861073    0.3470668227031634 Mg
   0.6639741349870326    0.6636885494662629    0.3157550003917892 Mg
   0.8513731634512750    0.8306444335115003    0.3393016524598224 Mg
   0.1770586031541706    0.0192731869109627    0.4884342518655644 Mg
   0.3300248483057041    0.1870858818403874    0.4975098668144857 Mg
   0.4993092781621052    0.3256596533342032    0.4959326420405977 Mg
   0.6571827071018262    0.5164227935957654    0.5095470440808320 Mg
   0.8413472294617516    0.6382240947985881    0.5175739102520404 Mg
   0.3599920156646360    0.9956065359884377    0.6758578526035900 Mg
   0.4919075312784469    0.1943666058757872    0.6708001276474992 Mg
   0.6675617916146552    0.3480733737107004    0.6746703657020986 Mg
   0.8235991481849030    0.5043134572442306    0.6700060995559622 Mg
   0.5007073020110766   -0.0198778008921948    0.8232520066541954 Mg
   0.6660241129338407    0.1311144315619593    0.8287291281607265 Mg
   0.8297956424356056    0.3527340162224587    0.8032738594607718 Mg
  -0.0325507897906189    0.6378355368408833    1.0544284977293199 Mg
   0.1682217903992625    0.8436308328743751    0.0007621264955611 Mg
  -0.0056505536468131    0.4993200617987570    0.1409060989238989 Mg
   0.1757692057653371    0.6680111119926697    0.1649717184138575 Mg
   0.3499528442126086    0.8368670299944230    0.1626612307206121 Mg
   0.0103882350826439    0.3338249638309672    0.3086669500933090 Mg
   0.1913391775986912    0.4856553411308983    0.3249002292510109 Mg
   0.3417983988297628    0.7005377666997505    0.3409169962363782 Mg
   0.4876141730952453    0.8198043219008854    0.3370888797924596 Mg
   0.0041459754829497    0.1677219914094607    0.5017291181223364 Mg
   0.1608188472386943    0.3304378191263419    0.5180057734982159 Mg
   0.3243894066518565    0.5086269161348704    0.5050042291643178 Mg
   0.5023259382218508    0.6432412087605106    0.5107250200797756 Mg
   0.6521217846164271    0.8334239203885810    0.4960447071715694 Mg
   1.0281162246923243    1.0297634065652377    0.6731923970783562 Mg
   0.1615142567304719    0.1712747082090211    0.6955149556333415 Mg
   0.3470261751906906    0.3189589756611147    0.6535276055078865 Mg
   0.5207871815466134    0.5047315403367961    0.6725778268275111 Mg
   0.6509195705523759    0.7228905610790931    0.6841199716810690 Mg
   0.8283946371905300    0.8334301322838186    0.6687059132528188 Mg
   0.1682225443316736   -0.0088132857626606    0.8229281352437258 Mg
   0.3401396182826342    0.1865414415804690    0.8062954727351971 Mg
   0.4931088719702058    0.3251797963296357    0.8319339261186730 Mg
   0.6717817773109592    0.5002929273921377    0.8363794449671678 Mg
   0.8320986234501969    0.6523826605791291    0.8147116924977235 Mg
   1.0256075350791196    0.8409642465680327    0.1580641316213643 Mg
  -0.0111229835089214    0.6576055221182177    0.3131445368955466 Mg
   0.1616149555782660    0.8427187804329701    0.3554773960289371 Mg
  -0.0131067409523282    0.5323950701910327    0.4949078265963677 Mg
   0.1534294789569299    0.6751264877938776    0.5116257479192551 Mg
   0.3282852541521948    0.8306095871385685    0.5069753960599167 Mg
   0.9864906243248460    0.3455671235098992    0.6864446109075591 Mg
   0.1356431373845664    0.4998960013120375    0.6640655881441787 Mg
   0.3263028263942705    0.6560577287241343    0.6870266160879707 Mg
   0.4903758329735595    0.8129845039781413    0.6613412655921366 Mg
   0.0109509970482982    0.1517809182733938    0.8248087186134754 Mg
   0.1800591390586280    0.2994708090721838    0.8256474524939764 Mg
   0.3432728092347197    0.4735920267626163    0.8358350813991211 Mg
   0.5009024280140745    0.6683105022391699    0.8257029561525635 Mg
   0.6844678976404844    0.8011384230313660    0.8438563334890067 Mg
   0.9977732552511275    0.8525080791900903    0.4892689062497678 Mg
  -0.0020585796334341    0.6918102236656246    0.6757839735833865 Mg
   0.1615593847536994    0.8261241079557180    0.6440500213942727 Mg
   0.0101211344111674    0.4971313792465438    0.8025273398066965 Mg
   0.1722758319493511    0.6381195486866671    0.8436177927787363 Mg
   0.3233946499797430    0.8407258175615896    0.8364027751463702 Mg
  -0.0050185345331548    0.8121105320215060    0.8221547067812720 Mg
   0.4836924636689234    0.4834420602927538    0.5133529716474213 Mg
   0.8333333333333333    0.1666666666666667    0.2666700952821776 O
   0.0075817181964576    0.3093765000678907    0.1481039482801096 O
  -0.0032727825963562    0.1469427852935284    0.3606717176970117 O
   0.4912954645353480    0.1888184941395609    0.1454694070841043 O
   0.6622262353982903    0.3207755654617812    0.1570341905976726 O
   0.8259015488437861    0.5163275914608676    0.1473275757169758 O
   0.0001680443897656    0.6600668709345530    0.1737470155029391 O
   0.6597344772336301    0.1525620930668800    0.3338042205384005 O
   0.8258588583318776    0.3189425248342215    0.3128684335590408 O
  -0.0018194110719525    0.4671644506865090    0.3165089825925859 O
   0.8492327771376299    0.1805806020833790    0.5211358683521061 O
  -0.0290346086153963    0.3322854708966309    0.5182321937541479 O
   0.0074048436028965    0.1665848087703047    0.6397840420675613 O
   0.1795303792158367    0.1820632675837621    0.1543090001847213 O
   0.3446174271966909    0.3172551569476239    0.1773998784087846 O
   0.4881096714117514    0.4870987537417432    0.1406815792734515 O
   0.6717035000068171    0.6348507320572949    0.1664074941370602 O
   0.8175506301946522    0.8331799161428984    0.1397316964440860 O
   0.0011989115870831    0.0084840981339183    0.1544015667992156 O
   0.3352994919796780    0.1824126974804554    0.3067480245279483 O
   0.5131149184024788    0.3407039028904980    0.3518920027746428 O
   0.6452590673671250    0.4841846993775190    0.3202509088230029 O
   0.8242208520282394    0.6550455354829077    0.3099328540260696 O
  -0.0148661584735549    0.8452829863120574    0.3247083959625656 O
   0.4971394339926475    0.1473095659284904    0.5033587515179333 O
   0.6727374213441969    0.3548249412464425    0.5084762952988570 O
   0.8666571735342690    0.4868983370473536    0.4903173689016194 O
   0.0013400532881672    0.6609253905546579    0.4726211162509699 O
   0.6554327720426057    0.1656993109308649    0.6438996056403421 O
   0.8632604816450182    0.3257945023497465    0.6506670141987099 O
   0.0021864363703271    0.4989385852780692    0.6578625553462908 O
   0.8483880257404133    0.1571922744160695    0.8242676113334969 O
  -0.0123301921259738    0.3542771224904759    0.8155223353662087 O
   0.0156581488665216    0.1994545076324903    0.0021399486261917 O
   0.1657574569041178    0.4825550694126522    0.1550262159360948 O
   0.3092117367991173    0.6539331611709654    0.1565472030636591 O
   0.4882572899342798    0.8327843492817175    0.1632637902974471 O
   0.6773714548950988   -0.0201396193279583    0.1731236341788657 O
   0.1740299848337387    0.3409491745848856    0.3327681511795590 O
   0.3380184237969591    0.4893803112072929    0.3399442750592088 O
   0.4933653298421135    0.6959570428130674    0.3352328614806905 O
   0.6332051555862056    0.8360916569798817    0.3179813214193385 O
   0.8258201311329779    0.0033495428696076    0.3275767091638749 O
   0.1784985018874775    0.1763953803415215    0.5002507732845826 O
   0.3649811636492195    0.3229685886973288    0.5257798872070661 O
   0.6349306928903647    0.6481521565834235    0.4749114731260620 O
   0.8700505400152171    0.8221118559006949    0.4808505987511816 O
  -0.0006962046443603    0.0027277471710908    0.4789582745433497 O
   0.3463041611838824    0.1778994059991070    0.6641888262279458 O
   0.5342109841716317    0.3280214275438965    0.6509799800027967 O
   0.6699727480057074    0.4837910434222185    0.6863374657138172 O
   0.8315254101521949    0.6568088711277088    0.6474254035018705 O
   0.0299152865200852    0.8509919938976688    0.6635197433800734 O
   0.5197866911448603    0.1636436160840743    0.8399772870475388 O
   0.6450146306944213    0.3001555680185354    0.8326979967630219 O
   0.8105854060007468    0.4838240024158232    0.8223654280168706 O
   0.0029740293090836    0.6607036030131882    0.8283161896925895 O
   0.6815015051909326    0.1713656802157946    0.0003120273968788 O
   0.8238128001561899    0.3591017286047772    0.0256204986515255 O
  -0.0017682099348297    0.5005634623011503    0.0037444815795350 O
   0.2008491017880589    0.8435496665506402    0.1805399249318437 O
   0.3620524499031724    0.0078345988706941    0.1578001058761304 O
   0.1802791808811668    0.6432665870482963    0.3247434369661406 O
   0.3311157043405892    0.8357581545562286    0.3355402066721069 O
   0.5101930998707018   -0.0134234979231307    0.3533236510214811 O
   0.1699644138993054    0.5025204226299690    0.4971582740843152 O
   0.3261541289724796    0.6463639941315278    0.4897252820519921 O
   0.4886321413093444    0.8207993043510079    0.4813507856368550 O
   0.6522693560862005    0.0114527867641559    0.4980021063512322 O
   0.1837794848612413    0.3325730832279956    0.6691684361703990 O
   0.3183288590906123    0.5042647872741819    0.6663688011340216 O
   0.5029239439111295    0.6753742635038135    0.6671612425412202 O
   0.7037740597268758    0.8457533753741069    0.6655078357800267 O
   0.8297006119986808   -0.0046279278294636    0.6422560090130384 O
   0.1828718826597977    0.1531600645566069    0.8174916386267560 O
   0.2892800920290854    0.3425009958826496    0.8019291598599443 O
   0.5160296498128718    0.4859052648747585    0.8220987399519993 O
   0.6657989693434445    0.6412399044117147    0.8450543774811414 O
   0.8232238638812972    0.8346189461852040    0.8427242525308647 O
  -0.0136200287550697    0.0024370210499138    0.8450982569561500 O
   0.3294666767279462    0.1610337559826963   -0.0404453374390691 O
   0.4888700069149139    0.3356431030782779    0.0067096255633139 O
   0.6792152433294278    0.4959152658117192   -0.0126319464311037 O
   0.8340053203792376    0.6807455266142879    0.0064379328717807 O
   0.0223109893891797    0.8580066179127600   -0.0242881041728236 O
   0.1659103053202887   -0.0020761062369898    0.3593067336593003 O
   0.1735344557086038    0.8155216339833788    0.4756570269878682 O
   0.3333978166570622    0.0344311967075659    0.4856983076060177 O
   0.1461324493290000    0.6664167691032934    0.6753033072116985 O
   0.3218773503972985    0.8213352602193152    0.6529488911407568 O
   0.5026641669204293    0.0000265946300931    0.6654170151580109 O
   0.1548087789471186    0.5227150279475676    0.8180936353933541 O
   0.3339756827726955    0.6528608428505449    0.8374106741671025 O
   0.4954870049995234    0.8304589501752562    0.8658197104402959 O
   0.6298437418239118   -0.0070328875006314    0.8328523055896514 O
   0.1672719669347862    0.3257084893817876    0.0036315143439057 O
   0.3147259536775364    0.4515121139824748   -0.0103910396711538 O
   0.5155920773089228    0.6858230177129550    0.0289726368302071 O
   0.6580634818690168    0.8424478768098475    0.0233284818622045 O
   0.8331113193981674   -0.0091294177971129   -0.0184993059500785 O
   0.1653544706311492   -0.0246353849233022    0.6640740914652612 O
   0.1453159365088171    0.8519750501953698    0.8355568711942132 O
   0.3348184342124781   -0.0025984867110010    0.8326747646855422 O
   0.1500420762891246    0.6855414819247704    0.0162845225397237 O
   0.3196754602518697    0.8363786026231702    0.0066629477435439 O
   0.5267986814948575    0.0100286518793631    0.0321640512731959 O
   0.1539913392449963   -0.0281737001893519    0.0127509213859380 O
