KPOINTS from doped, with reciprocal_density = 325/Å⁻³
0
Gamma
13 13 8
