-20.0%_BDM__vac_4_Se[0.08333333 0.555145
   1.0000000000000000     
    11.8576449999999998    0.0000000000000000    0.0000000000000000
     0.0000000000000000   11.5459130000000005    0.0000000000000000
     0.0000000000000000    0.0000000000000000   11.9281419999999994
   O    Sb   Se
     1    24    35
Direct
  0.0838419542195594  0.5975970022365182  0.9235844427369040
  0.2566882609501195  0.0376158875258311  0.1402432281645392
  0.7511943115792846  0.1697975388795555  0.5283518830531096
  0.4171249250377854  0.1694737474590462  0.5283948726067864
  0.0841004467832897  0.1700390775291919  0.5342847159943485
  0.5843036971248944  0.8271110938109081  0.4655001000512487
  0.2502943499517910  0.8275168835640163  0.4669242509317084
  0.9371531245812666  0.6672162533344402  0.9728966090402310
  0.5838003168058375  0.6596348789187909  0.9650653714889874
  0.2304862175266691  0.6671115515700655  0.9730543750594489
  0.7520898584496024  0.3312448442989999  0.0205536455339527
  0.4157074016123545  0.3312987879808956  0.0206983209291602
  0.0839869789623872  0.3133267523674952  0.0256185969900921
  0.9180687975050648  0.8274857961694275  0.4665521600361370
  0.5840490887973419  0.4603031533162468  0.6430562101144347
  0.9154027660585538  0.4604889967776835  0.6429865784068587
  0.5836527821781098  0.0348701156397074  0.1381404972511303
  0.9105896263153340  0.0377884752113848  0.1401849688924540
  0.4181747702155739  0.9534058192527055  0.8544659815492196
  0.0838861286873063  0.9488558781616802  0.8509007221346601
  0.0845165840334687  0.5378977810822786  0.3545549091883687
  0.4179308509954636  0.5357678228880561  0.3544787505505464
  0.7509736078776510  0.5360538405040411  0.3545599067316734
  0.2527952451082667  0.4605401393186941  0.6427385198018771
  0.7494373408575197  0.9535064687886540  0.8544574712447623
  0.5842465208293476  0.3691288192819476  0.4449359908094719
  0.9176605615232893  0.3702513995099661  0.4460730125565905
  0.0842117096356777  0.6292004528390026  0.5510656147101137
  0.4180017282119441  0.6266538920087054  0.5515774107462691
  0.7504754338583309  0.6268511427809874  0.5517474078217220
  0.4126640540889456  0.5509952157019415  0.8702230627546286
  0.4190787497816916  0.1930943464173654  0.2019167523654078
  0.2508869336963674  0.1252312314518347  0.9422784219584516
  0.5838698908751596  0.1176343380490494  0.9372375146010424
  0.9165973397250711  0.1254777324118407  0.9421760114302167
  0.0839717234129071  0.1914309936524265  0.2059033125923150
  0.7484400158795705  0.1933564077343610  0.2019485656446932
  0.2482575673269014  0.4414613572995725  0.1183271901842858
  0.2505836383925982  0.3701948494373066  0.4458360332464511
  0.7548078184947624  0.5510678245436655  0.8700605867129135
  0.7517068067327732  0.8675894901997251  0.0534175660263621
  0.9170016944721157  0.0522714739657159  0.6268045224519325
  0.0838109467808477  0.8669334002219687  0.0526894809148042
  0.0843264421994145  0.9449777162128913  0.3710438784036164
  0.4172906038362958  0.9440504384164105  0.3701335114453020
  0.7510064084602794  0.9441625107782885  0.3699067720798814
  0.2511402240300323  0.0524885263426907  0.6272099253709466
  0.5842432483156429  0.0529898406430877  0.6246261667058721
  0.5839065840237057  0.4424653012653576  0.1221579616540395
  0.0842226835771136  0.3082358769301586  0.7121489396183370
  0.4170452989873522  0.3048394713881648  0.7069809915236266
  0.7510694706216967  0.3047349221450840  0.7070377145554071
  0.2511552650320208  0.6914715271129882  0.2884258531443367
  0.5843150079993660  0.6905630156111754  0.2879249573410160
  0.9176094339876072  0.6914061134505266  0.2881005474638824
  0.2459371984641805  0.7947732651236503  0.7888366886703723
  0.5838052338668640  0.8001680184076581  0.7879708543797750
  0.9219484202928327  0.7948017646052594  0.7887172991136140
  0.4158421923870865  0.8674642369219459  0.0534472291424381
  0.9195980479856642  0.4413698105509811  0.1180829933772396

  0.00000000E+00  0.00000000E+00  0.00000000E+00
  0.00000000E+00  0.00000000E+00  0.00000000E+00
  0.00000000E+00  0.00000000E+00  0.00000000E+00
  0.00000000E+00  0.00000000E+00  0.00000000E+00
  0.00000000E+00  0.00000000E+00  0.00000000E+00
  0.00000000E+00  0.00000000E+00  0.00000000E+00
  0.00000000E+00  0.00000000E+00  0.00000000E+00
  0.00000000E+00  0.00000000E+00  0.00000000E+00
  0.00000000E+00  0.00000000E+00  0.00000000E+00
  0.00000000E+00  0.00000000E+00  0.00000000E+00
  0.00000000E+00  0.00000000E+00  0.00000000E+00
  0.00000000E+00  0.00000000E+00  0.00000000E+00
  0.00000000E+00  0.00000000E+00  0.00000000E+00
  0.00000000E+00  0.00000000E+00  0.00000000E+00
  0.00000000E+00  0.00000000E+00  0.00000000E+00
  0.00000000E+00  0.00000000E+00  0.00000000E+00
  0.00000000E+00  0.00000000E+00  0.00000000E+00
  0.00000000E+00  0.00000000E+00  0.00000000E+00
  0.00000000E+00  0.00000000E+00  0.00000000E+00
  0.00000000E+00  0.00000000E+00  0.00000000E+00
  0.00000000E+00  0.00000000E+00  0.00000000E+00
  0.00000000E+00  0.00000000E+00  0.00000000E+00
  0.00000000E+00  0.00000000E+00  0.00000000E+00
  0.00000000E+00  0.00000000E+00  0.00000000E+00
  0.00000000E+00  0.00000000E+00  0.00000000E+00
  0.00000000E+00  0.00000000E+00  0.00000000E+00
  0.00000000E+00  0.00000000E+00  0.00000000E+00
  0.00000000E+00  0.00000000E+00  0.00000000E+00
  0.00000000E+00  0.00000000E+00  0.00000000E+00
  0.00000000E+00  0.00000000E+00  0.00000000E+00
  0.00000000E+00  0.00000000E+00  0.00000000E+00
  0.00000000E+00  0.00000000E+00  0.00000000E+00
  0.00000000E+00  0.00000000E+00  0.00000000E+00
  0.00000000E+00  0.00000000E+00  0.00000000E+00
  0.00000000E+00  0.00000000E+00  0.00000000E+00
  0.00000000E+00  0.00000000E+00  0.00000000E+00
  0.00000000E+00  0.00000000E+00  0.00000000E+00
  0.00000000E+00  0.00000000E+00  0.00000000E+00
  0.00000000E+00  0.00000000E+00  0.00000000E+00
  0.00000000E+00  0.00000000E+00  0.00000000E+00
  0.00000000E+00  0.00000000E+00  0.00000000E+00
  0.00000000E+00  0.00000000E+00  0.00000000E+00
  0.00000000E+00  0.00000000E+00  0.00000000E+00
  0.00000000E+00  0.00000000E+00  0.00000000E+00
  0.00000000E+00  0.00000000E+00  0.00000000E+00
  0.00000000E+00  0.00000000E+00  0.00000000E+00
  0.00000000E+00  0.00000000E+00  0.00000000E+00
  0.00000000E+00  0.00000000E+00  0.00000000E+00
  0.00000000E+00  0.00000000E+00  0.00000000E+00
  0.00000000E+00  0.00000000E+00  0.00000000E+00
  0.00000000E+00  0.00000000E+00  0.00000000E+00
  0.00000000E+00  0.00000000E+00  0.00000000E+00
  0.00000000E+00  0.00000000E+00  0.00000000E+00
  0.00000000E+00  0.00000000E+00  0.00000000E+00
  0.00000000E+00  0.00000000E+00  0.00000000E+00
  0.00000000E+00  0.00000000E+00  0.00000000E+00
  0.00000000E+00  0.00000000E+00  0.00000000E+00
  0.00000000E+00  0.00000000E+00  0.00000000E+00
  0.00000000E+00  0.00000000E+00  0.00000000E+00
  0.00000000E+00  0.00000000E+00  0.00000000E+00
