KPOINTS from doped, with reciprocal_density = 690/Å⁻³
0
Gamma
17 17 11
