Mg109 O107                              
   1.00000000000000     
    12.5998379999999983    0.0000000000000004    0.0000000000000004
     0.0000000000000004   12.5998379999999983   -0.0000000000000004
    -0.0000000000000004   -0.0000000000000004   12.5998379999999983
   Mg   O 
   109   107
Direct
  0.6682167278270594  0.0008723850473289  0.9988149479853742
  0.8348970342737102  0.1671755900303776  0.9987498819725865
  0.8349008921602944  0.0007996233904402  0.1651162361476266
  0.3339710733261089  0.0009400046043550  0.9988993503307471
  0.5010887544594632  0.1662072769767428  0.0003238307082099
  0.6686644725226137  0.3335784139143428 -0.0002203140024712
  0.8351959499194278  0.5007116968387754  0.9989242127804522
  0.5011189973407990  0.0023695983685742  0.1641702020029115
  0.6684797790697171  0.1666574643959753  0.1646146978224287
  0.8356112400994975  0.3333982166079435  0.1645962396486929
  0.6686600192320948  0.0017899830615808  0.3315414246199890
  0.8356209734726623  0.1666001184525369  0.3313687452207988
  0.8352114938638731  0.0009287654019492  0.4986533098847752
  0.0011588168627360  0.0008962347212147  0.9988354663980824
  0.1674932233526921  0.1672701035696930  0.9992381962760412
  0.3337168445396369  0.3334907747365334  0.0006726665214768
  0.5008796150957910  0.5006426307575972  0.0030359063815158
  0.6681300603479919  0.6678784465934539 -0.0003146679811249
  0.8347535895777713  0.8344938038867658  0.9987670567649971
  0.1675412878711155  0.0012849852088892  0.1652197631689955
  0.3341516158948541  0.1677193063701543  0.1656632459815664
  0.5011364418306381  0.3334602468883284  0.1655445801639058
  0.6692766138174925  0.5006321043747705  0.1640186668054023
  0.8349589910119525  0.6682036130025263  0.1646145648516399
  0.3337481135532571  0.0027092892729730  0.3314671395525737
  0.5011401794823414  0.1675857842923536  0.3314257579992586
  0.6684671386966016  0.3299682050995136  0.3279255585598734
  0.8423636383102178  0.5010181819907477  0.3255210579628374
  0.5009119152335083  0.0050505008644568  0.4986318389691696
  0.6693065497726298  0.1660311706384750  0.4985984610468256
  0.8423544541630557  0.3275532037291838  0.4990244457089589
  0.6681191389355619  0.0016991389830475  0.6658305368233123
  0.8349480491351812  0.1666380206621592  0.6661614177611247
  0.8347401635578994  0.0008160008093328  0.8324246736772553
  0.0011859859018310  0.3337400312017591  0.9989141778121663
  0.1664502861693059  0.5008850516189380  0.0003577214946096
  0.3338314801737004  0.6684280869691539 -0.0001999827815933
  0.5009420973957956  0.8349275226713634 -0.0010866778655700
  0.0015136458064353  0.1672761950221346  0.1652104138687592
  0.1679484095876676  0.3339092304440348  0.1656724518765341
  0.3337069116956621  0.5008690947977353  0.1655807703552713
  0.5008844544304440  0.6690086174640972  0.1640168858470255
  0.6684442321249321  0.8346888940466886  0.1646065764773569
  0.0012112400506199  0.0009480195225781  0.3316653205230516
  0.1679740699416696  0.1677257338246137  0.3318475721640690
  0.3345859195557244  0.3343242357864462  0.3323009252523711
  0.5011651990267424  0.5008899568954499  0.3282422708364761
  0.6680192105223876  0.6677520748290067  0.3303469998335326
  0.8347612978892883  0.8344726738394990  0.3315801196784890
  0.1664673222602593  0.0023898603590645  0.4988419872730765
  0.3337190408210910  0.1675867285983922  0.4988647446868750
  0.5011703148439708  0.3302626376771922  0.4989216623200627
  0.6999647181854782  0.4817252109534187  0.4796496184541272
  0.8380337835454001  0.6683173247052572  0.4984224866896115
  0.3338239890733976  0.0018314841601626  0.6663809426321821
  0.5008612673159270  0.1660537771760845  0.6670196401722472
  0.6680301055319846  0.3323727113916732  0.6657536843362529
  0.8379729131868847  0.5004439354723800  0.6663266764874237
  0.5009027078626368  0.0009122046527545  0.8328941397509358
  0.6684264384173088  0.1666339462976863  0.8326578792268979
  0.8347330566015755  0.3336194917325563  0.8324561450105213
  0.0011543114868492  0.6679919739746945  0.9988413151399329
  0.1674433637418148  0.8346675465329604  0.9987587985104627
  0.0026324018126274  0.5008952120164971  0.1641872312174305
  0.1669420991550155  0.6682447542342922  0.1646436512055899
  0.3336677971220819  0.8353782428002013  0.1645960740407535
  0.0029597153277360  0.3334807228607067  0.3314688290547279
  0.1678570900428559  0.5008896317437107  0.3314458097531641
  0.3302542307139790  0.6682157678274199  0.3279390957709346
  0.5012646089009075  0.8420725042692304  0.3255393235985848
  0.0026549812848894  0.1661939165180632  0.4988393758325043
  0.1678577374156132  0.3334715305352692  0.4988566177789280
  0.3305379632157075  0.5009042004759550  0.4989172979934210
  0.4820225628777816  0.6996264484131620  0.4797171567056991
  0.6685941826042345  0.8377297951973355  0.4984169380964382
  0.0011285957981325  0.0008538412225200  0.6659228142606911
  0.1669005313281098  0.1666750442945113  0.6662182266618040
  0.3302110198209576  0.3299795076106957  0.6662274723939610
  0.4819740270983600  0.4817955036985094  0.6976175795495354
  0.6744297511307548  0.6741434448475397  0.6721640546395056
  0.8359194941797082  0.8356242466147065  0.6657249198206534
  0.1674014836216217  0.0007813196044910  0.8326153983534179
  0.3336052326694777  0.1666206338407598  0.8333486469326055
  0.5012478925771681  0.3275882370370232  0.8400596401495615
  0.6685739422316301  0.5004523729714299  0.8357369235839635
  0.8359292735844013  0.6677717781511404  0.8336356058524342
  0.0010773892601908  0.8346602367460096  0.1651306561483437
  0.0020915786647832  0.6684059467133926  0.3315532608813261
  0.1668996108338133  0.8353772767157917  0.3313707770465519
  0.0053281753874006  0.5006239941666824  0.4986203526411055
  0.1663157622213130  0.6690393738436310  0.4985960986232548
  0.3278676291507321  0.8420709094563014  0.4990134253115585
  0.0020795456983882  0.3335770639584745  0.6663826664311725
  0.1662813239454771  0.5006186642607564  0.6670118782538352
  0.3326224252766919  0.6677560676610250  0.6657644824579202
  0.5006926196654077  0.8377101181515286  0.6663220017137594
  0.0010158905472473  0.1671653804732476  0.8326159684771172
  0.1668361475018152  0.3334069769157150  0.8333498440598706
  0.3277971948432500  0.5010267417345835  0.8400614188269352
  0.5006981605516594  0.6683244049350296  0.8357339212750290
  0.6680179715715236  0.8356509676791170  0.8336165973832546
  0.0012388219885510  0.8349211310829953  0.4986454745481585
  0.0019838826897496  0.6678557034001089  0.6658235408583312
  0.1669030520370355  0.8346865029196228  0.6661562240655572
  0.0011833255649685  0.5006979851060387  0.8329139504490995
  0.1668876432570333  0.6681999999600795  0.8326725694148740
  0.3338419252203886  0.8344658215161317  0.8324612199014680
  0.0010801573366916  0.8344760852232107  0.8324279359727561
  0.5590795993174061  0.5586882150224542  0.5566991291327211
  0.8347661089194330  0.1675266480908888  0.1654258116263804
  0.0015296281438125  0.3342932637356233  0.1654742009295150
  0.0015382553544766  0.1675643199645372  0.3321664616698205
  0.5014638729485283  0.1678889467565156  0.1657883768449150
  0.6684096496810153  0.3338665094963427  0.1651006049860139
  0.8357985454635117  0.5009334388861046  0.1642926840897088
  0.0009590600852950  0.6677462147449347  0.1653783113953924
  0.6684214604868817  0.1671547034226621  0.3317948105914740
  0.8353338772844432  0.3348516172254325  0.3327898582293310
  0.0035379160985270  0.5010258420075674  0.3312819157129806
  0.8358423826956676  0.1663059345524904  0.4988513203122245
  0.0035380512351515  0.3332900391515075  0.4989765901781972
  0.0009238119321390  0.1674326818821673  0.6656431636146860
  0.1679972334703518  0.1677724456853733  0.1656508986344876
  0.3348803861766863  0.3346440184035005  0.1664511271676753
  0.5016431288932083  0.5013827994001270  0.1663029086883594
  0.6678738807441403  0.6676188833235386  0.1657499623593865
  0.8342622075463245  0.8339859237080088  0.1655520067417371
  0.0011335656209147  0.0008742144817981  0.1653891185914640
  0.3348893825032521  0.1685086332192056  0.3325653489072319
  0.5021973270157888  0.3353449164826938  0.3333176650819598
  0.6707316248693290  0.4997139195314957  0.3290861449601713
  0.8340779493344985  0.6666860956489755  0.3330800528799465
  0.0007686641344209  0.8342733773998869  0.3321692878954600
  0.5016590278402927  0.1683396020434935  0.4993294984323209
  0.6707783186354555  0.3311339536378862  0.4976953914567837
  0.8453268563620869  0.5001119696438739  0.4980601035398660
  0.0020161768470048  0.6680759986251595  0.4988111423758641
  0.6678728921036790  0.1678157284499930  0.6655273042303509
  0.8340612555064982  0.3351306851756263  0.6646410144562920
  0.0019835638975537  0.5008864601866302  0.6660107893171002
  0.8342430069396592  0.1676363405310562  0.8319073580040172
  0.0007368815697353  0.3342548770634208  0.8321953432442494
  0.0011185155084667  0.1675058902861307  0.9987621508870334
  0.1681314708831183  0.5012325595075063  0.1658118071599352
  0.3341396005469960  0.6681524409724400  0.1651211716641793
  0.5011730165258673  0.8355441280234198  0.1642807458290846
  0.6679801006290483  0.0006562333601362  0.1653500125169919
  0.1687827154400213  0.3346398177070831  0.3325601364066663
  0.3356040646238533  0.5019329388817741  0.3333224880036683
  0.4999814884090449  0.6704564095490392  0.3291071901494556
  0.6669568916529914  0.8337801338594165  0.3330710620065386
  0.8345344291565403  0.0004666231556139  0.3321606524781134
  0.1681403295965039  0.1678890387427507  0.4991229152326412
  0.3356062701577293  0.3353466590547942  0.4999127802206283
  0.6617075984619111  0.6614110949889456  0.4993609861783183
  0.8331613552429930  0.8328641182796596  0.4989304566426921
  0.0009074722524712  0.0006094192878023  0.4988881086332137
  0.3341160323664071  0.1671769456155296  0.6660891400418697
  0.4999694615855709  0.3311676209954839  0.6684748976269245
  0.6617370534208907  0.5014437985130381  0.6594371528320149
  0.8344448465716207  0.6667270298070136  0.6646675843957743
  0.0008411977345456  0.8339971849005454  0.6653971785693455
  0.5011566678409812  0.1663255094937709  0.8334866232073928
  0.6669437195487065  0.3351287149410042  0.8317390480702309
  0.8331328025065592  0.5010228849506617  0.8308315683468661
  0.0008362619438505  0.6674933815871389  0.8319261577546242
  0.6679830392457893  0.1674366312853209  0.9985883853423124
  0.8345330897088389  0.3342733833271904  0.9984341438864690
  0.0008931627363820  0.5010069409268594  0.9985622026152989
  0.1678016675986259  0.8345370796599340  0.1654402391068720
  0.3345292219000634  0.0013055206281868  0.1654708944693924
  0.1674568907304354  0.6681610827593234  0.3318018925265133
  0.3351246010700595  0.8350893192143427  0.3327813217981380
  0.5013046883729754  0.0032595964460667  0.3312741971084163
  0.1686225268583395  0.5013950612575006  0.4993274801376675
  0.3314306535683884  0.6705103379526304  0.4977005674579298
  0.5004075125924007  0.8450003309803990  0.4980667934808780
  0.6683454831809817  0.0017074506940659  0.4988229477055420
  0.1674266394747970  0.3338652272262397  0.6660927789446683
  0.3313683401375643  0.4997243075885484  0.6684920525081866
  0.5017161995282650  0.6613887450589316  0.6594262785248022
  0.6669877557445157  0.8341526666132596  0.6646705445554840
  0.8342857211835024  0.0005450842380358  0.6653982743919264
  0.1677554541489747  0.1675268155335231  0.8324260541234250
  0.3350720476151353  0.3348533290057798  0.8330436264002485
  0.5003739587915960  0.5001304345007133  0.8429824070582983
  0.6670157505816133  0.6667396731621041  0.8321175891883894
  0.8338747074821453  0.8336095761410106  0.8315222173842275
  0.0009423376825890  0.0006620514503020  0.8320885519391678
  0.3345012061440401  0.1675532071215155  0.9992176507132343
  0.5012761180194373  0.3333171628761277  0.0012055340316063
  0.6683269736716084  0.5009014911593466 -0.0003219143713696
  0.8342936450481385  0.6674952148122024  0.9985051031623681
  0.0009520317984373  0.8341915665223358  0.9985863800569567
  0.1678215840796143  0.0013039279561057  0.3321851188892641
  0.1666247992303028  0.8355535857312202  0.4988455851359256
  0.3335920137032832  0.0032589213538944  0.4989809781480938
  0.1680833962029713  0.6676247899521873  0.6655296208207041
  0.3353914012597557  0.8337977950838891  0.6646531209148762
  0.5011410185559034  0.0017131420556202  0.6660127949441880
  0.1665706203794114  0.5009409021775838  0.8335116177995955
  0.3353700637781622  0.6667012103274392  0.8317428954489128
  0.5012469623439079  0.8328576947315544  0.8308190582168482
  0.6677373124966181  0.0005544977164329  0.8319259771576045
  0.1677903749258670  0.3342836904547772  0.9992294316235165
  0.3335479006918983  0.5010557137545221  0.0012185883385614
  0.5011415837615190  0.6680743695817767 -0.0003243787625187
  0.6677420050896815  0.8340045513536317  0.9984873581210025
  0.8344424040990303  0.0006633540158946  0.9985697244083576
  0.1677011850384067  0.0006652804162436  0.6656401649113370
  0.1678929259979154  0.8339896482416070  0.8319124716072970
  0.3344787499080953  0.0004792461452894  0.8321853725406596
  0.1677220787441099  0.6677591546655497  0.9986040364061638
  0.3345108179284806  0.8342789221011352  0.9984361486832216
  0.5012265844190895  0.0006109394716708  0.9985401511182999
  0.1677601754051052  0.0008722272517317  0.9987585892053583
 
  0.00000000E+00  0.00000000E+00  0.00000000E+00
  0.00000000E+00  0.00000000E+00  0.00000000E+00
  0.00000000E+00  0.00000000E+00  0.00000000E+00
  0.00000000E+00  0.00000000E+00  0.00000000E+00
  0.00000000E+00  0.00000000E+00  0.00000000E+00
  0.00000000E+00  0.00000000E+00  0.00000000E+00
  0.00000000E+00  0.00000000E+00  0.00000000E+00
  0.00000000E+00  0.00000000E+00  0.00000000E+00
  0.00000000E+00  0.00000000E+00  0.00000000E+00
  0.00000000E+00  0.00000000E+00  0.00000000E+00
  0.00000000E+00  0.00000000E+00  0.00000000E+00
  0.00000000E+00  0.00000000E+00  0.00000000E+00
  0.00000000E+00  0.00000000E+00  0.00000000E+00
  0.00000000E+00  0.00000000E+00  0.00000000E+00
  0.00000000E+00  0.00000000E+00  0.00000000E+00
  0.00000000E+00  0.00000000E+00  0.00000000E+00
  0.00000000E+00  0.00000000E+00  0.00000000E+00
  0.00000000E+00  0.00000000E+00  0.00000000E+00
  0.00000000E+00  0.00000000E+00  0.00000000E+00
  0.00000000E+00  0.00000000E+00  0.00000000E+00
  0.00000000E+00  0.00000000E+00  0.00000000E+00
  0.00000000E+00  0.00000000E+00  0.00000000E+00
  0.00000000E+00  0.00000000E+00  0.00000000E+00
  0.00000000E+00  0.00000000E+00  0.00000000E+00
  0.00000000E+00  0.00000000E+00  0.00000000E+00
  0.00000000E+00  0.00000000E+00  0.00000000E+00
  0.00000000E+00  0.00000000E+00  0.00000000E+00
  0.00000000E+00  0.00000000E+00  0.00000000E+00
  0.00000000E+00  0.00000000E+00  0.00000000E+00
  0.00000000E+00  0.00000000E+00  0.00000000E+00
  0.00000000E+00  0.00000000E+00  0.00000000E+00
  0.00000000E+00  0.00000000E+00  0.00000000E+00
  0.00000000E+00  0.00000000E+00  0.00000000E+00
  0.00000000E+00  0.00000000E+00  0.00000000E+00
  0.00000000E+00  0.00000000E+00  0.00000000E+00
  0.00000000E+00  0.00000000E+00  0.00000000E+00
  0.00000000E+00  0.00000000E+00  0.00000000E+00
  0.00000000E+00  0.00000000E+00  0.00000000E+00
  0.00000000E+00  0.00000000E+00  0.00000000E+00
  0.00000000E+00  0.00000000E+00  0.00000000E+00
  0.00000000E+00  0.00000000E+00  0.00000000E+00
  0.00000000E+00  0.00000000E+00  0.00000000E+00
  0.00000000E+00  0.00000000E+00  0.00000000E+00
  0.00000000E+00  0.00000000E+00  0.00000000E+00
  0.00000000E+00  0.00000000E+00  0.00000000E+00
  0.00000000E+00  0.00000000E+00  0.00000000E+00
  0.00000000E+00  0.00000000E+00  0.00000000E+00
  0.00000000E+00  0.00000000E+00  0.00000000E+00
  0.00000000E+00  0.00000000E+00  0.00000000E+00
  0.00000000E+00  0.00000000E+00  0.00000000E+00
  0.00000000E+00  0.00000000E+00  0.00000000E+00
  0.00000000E+00  0.00000000E+00  0.00000000E+00
  0.00000000E+00  0.00000000E+00  0.00000000E+00
  0.00000000E+00  0.00000000E+00  0.00000000E+00
  0.00000000E+00  0.00000000E+00  0.00000000E+00
  0.00000000E+00  0.00000000E+00  0.00000000E+00
  0.00000000E+00  0.00000000E+00  0.00000000E+00
  0.00000000E+00  0.00000000E+00  0.00000000E+00
  0.00000000E+00  0.00000000E+00  0.00000000E+00
  0.00000000E+00  0.00000000E+00  0.00000000E+00
  0.00000000E+00  0.00000000E+00  0.00000000E+00
  0.00000000E+00  0.00000000E+00  0.00000000E+00
  0.00000000E+00  0.00000000E+00  0.00000000E+00
  0.00000000E+00  0.00000000E+00  0.00000000E+00
  0.00000000E+00  0.00000000E+00  0.00000000E+00
  0.00000000E+00  0.00000000E+00  0.00000000E+00
  0.00000000E+00  0.00000000E+00  0.00000000E+00
  0.00000000E+00  0.00000000E+00  0.00000000E+00
  0.00000000E+00  0.00000000E+00  0.00000000E+00
  0.00000000E+00  0.00000000E+00  0.00000000E+00
  0.00000000E+00  0.00000000E+00  0.00000000E+00
  0.00000000E+00  0.00000000E+00  0.00000000E+00
  0.00000000E+00  0.00000000E+00  0.00000000E+00
  0.00000000E+00  0.00000000E+00  0.00000000E+00
  0.00000000E+00  0.00000000E+00  0.00000000E+00
  0.00000000E+00  0.00000000E+00  0.00000000E+00
  0.00000000E+00  0.00000000E+00  0.00000000E+00
  0.00000000E+00  0.00000000E+00  0.00000000E+00
  0.00000000E+00  0.00000000E+00  0.00000000E+00
  0.00000000E+00  0.00000000E+00  0.00000000E+00
  0.00000000E+00  0.00000000E+00  0.00000000E+00
  0.00000000E+00  0.00000000E+00  0.00000000E+00
  0.00000000E+00  0.00000000E+00  0.00000000E+00
  0.00000000E+00  0.00000000E+00  0.00000000E+00
  0.00000000E+00  0.00000000E+00  0.00000000E+00
  0.00000000E+00  0.00000000E+00  0.00000000E+00
  0.00000000E+00  0.00000000E+00  0.00000000E+00
  0.00000000E+00  0.00000000E+00  0.00000000E+00
  0.00000000E+00  0.00000000E+00  0.00000000E+00
  0.00000000E+00  0.00000000E+00  0.00000000E+00
  0.00000000E+00  0.00000000E+00  0.00000000E+00
  0.00000000E+00  0.00000000E+00  0.00000000E+00
  0.00000000E+00  0.00000000E+00  0.00000000E+00
  0.00000000E+00  0.00000000E+00  0.00000000E+00
  0.00000000E+00  0.00000000E+00  0.00000000E+00
  0.00000000E+00  0.00000000E+00  0.00000000E+00
  0.00000000E+00  0.00000000E+00  0.00000000E+00
  0.00000000E+00  0.00000000E+00  0.00000000E+00
  0.00000000E+00  0.00000000E+00  0.00000000E+00
  0.00000000E+00  0.00000000E+00  0.00000000E+00
  0.00000000E+00  0.00000000E+00  0.00000000E+00
  0.00000000E+00  0.00000000E+00  0.00000000E+00
  0.00000000E+00  0.00000000E+00  0.00000000E+00
  0.00000000E+00  0.00000000E+00  0.00000000E+00
  0.00000000E+00  0.00000000E+00  0.00000000E+00
  0.00000000E+00  0.00000000E+00  0.00000000E+00
  0.00000000E+00  0.00000000E+00  0.00000000E+00
  0.00000000E+00  0.00000000E+00  0.00000000E+00
  0.00000000E+00  0.00000000E+00  0.00000000E+00
  0.00000000E+00  0.00000000E+00  0.00000000E+00
  0.00000000E+00  0.00000000E+00  0.00000000E+00
  0.00000000E+00  0.00000000E+00  0.00000000E+00
  0.00000000E+00  0.00000000E+00  0.00000000E+00
  0.00000000E+00  0.00000000E+00  0.00000000E+00
  0.00000000E+00  0.00000000E+00  0.00000000E+00
  0.00000000E+00  0.00000000E+00  0.00000000E+00
  0.00000000E+00  0.00000000E+00  0.00000000E+00
  0.00000000E+00  0.00000000E+00  0.00000000E+00
  0.00000000E+00  0.00000000E+00  0.00000000E+00
  0.00000000E+00  0.00000000E+00  0.00000000E+00
  0.00000000E+00  0.00000000E+00  0.00000000E+00
  0.00000000E+00  0.00000000E+00  0.00000000E+00
  0.00000000E+00  0.00000000E+00  0.00000000E+00
  0.00000000E+00  0.00000000E+00  0.00000000E+00
  0.00000000E+00  0.00000000E+00  0.00000000E+00
  0.00000000E+00  0.00000000E+00  0.00000000E+00
  0.00000000E+00  0.00000000E+00  0.00000000E+00
  0.00000000E+00  0.00000000E+00  0.00000000E+00
  0.00000000E+00  0.00000000E+00  0.00000000E+00
  0.00000000E+00  0.00000000E+00  0.00000000E+00
  0.00000000E+00  0.00000000E+00  0.00000000E+00
  0.00000000E+00  0.00000000E+00  0.00000000E+00
  0.00000000E+00  0.00000000E+00  0.00000000E+00
  0.00000000E+00  0.00000000E+00  0.00000000E+00
  0.00000000E+00  0.00000000E+00  0.00000000E+00
  0.00000000E+00  0.00000000E+00  0.00000000E+00
  0.00000000E+00  0.00000000E+00  0.00000000E+00
  0.00000000E+00  0.00000000E+00  0.00000000E+00
  0.00000000E+00  0.00000000E+00  0.00000000E+00
  0.00000000E+00  0.00000000E+00  0.00000000E+00
  0.00000000E+00  0.00000000E+00  0.00000000E+00
  0.00000000E+00  0.00000000E+00  0.00000000E+00
  0.00000000E+00  0.00000000E+00  0.00000000E+00
  0.00000000E+00  0.00000000E+00  0.00000000E+00
  0.00000000E+00  0.00000000E+00  0.00000000E+00
  0.00000000E+00  0.00000000E+00  0.00000000E+00
  0.00000000E+00  0.00000000E+00  0.00000000E+00
  0.00000000E+00  0.00000000E+00  0.00000000E+00
  0.00000000E+00  0.00000000E+00  0.00000000E+00
  0.00000000E+00  0.00000000E+00  0.00000000E+00
  0.00000000E+00  0.00000000E+00  0.00000000E+00
  0.00000000E+00  0.00000000E+00  0.00000000E+00
  0.00000000E+00  0.00000000E+00  0.00000000E+00
  0.00000000E+00  0.00000000E+00  0.00000000E+00
  0.00000000E+00  0.00000000E+00  0.00000000E+00
  0.00000000E+00  0.00000000E+00  0.00000000E+00
  0.00000000E+00  0.00000000E+00  0.00000000E+00
  0.00000000E+00  0.00000000E+00  0.00000000E+00
  0.00000000E+00  0.00000000E+00  0.00000000E+00
  0.00000000E+00  0.00000000E+00  0.00000000E+00
  0.00000000E+00  0.00000000E+00  0.00000000E+00
  0.00000000E+00  0.00000000E+00  0.00000000E+00
  0.00000000E+00  0.00000000E+00  0.00000000E+00
  0.00000000E+00  0.00000000E+00  0.00000000E+00
  0.00000000E+00  0.00000000E+00  0.00000000E+00
  0.00000000E+00  0.00000000E+00  0.00000000E+00
  0.00000000E+00  0.00000000E+00  0.00000000E+00
  0.00000000E+00  0.00000000E+00  0.00000000E+00
  0.00000000E+00  0.00000000E+00  0.00000000E+00
  0.00000000E+00  0.00000000E+00  0.00000000E+00
  0.00000000E+00  0.00000000E+00  0.00000000E+00
  0.00000000E+00  0.00000000E+00  0.00000000E+00
  0.00000000E+00  0.00000000E+00  0.00000000E+00
  0.00000000E+00  0.00000000E+00  0.00000000E+00
  0.00000000E+00  0.00000000E+00  0.00000000E+00
  0.00000000E+00  0.00000000E+00  0.00000000E+00
  0.00000000E+00  0.00000000E+00  0.00000000E+00
  0.00000000E+00  0.00000000E+00  0.00000000E+00
  0.00000000E+00  0.00000000E+00  0.00000000E+00
  0.00000000E+00  0.00000000E+00  0.00000000E+00
  0.00000000E+00  0.00000000E+00  0.00000000E+00
  0.00000000E+00  0.00000000E+00  0.00000000E+00
  0.00000000E+00  0.00000000E+00  0.00000000E+00
  0.00000000E+00  0.00000000E+00  0.00000000E+00
  0.00000000E+00  0.00000000E+00  0.00000000E+00
  0.00000000E+00  0.00000000E+00  0.00000000E+00
  0.00000000E+00  0.00000000E+00  0.00000000E+00
  0.00000000E+00  0.00000000E+00  0.00000000E+00
  0.00000000E+00  0.00000000E+00  0.00000000E+00
  0.00000000E+00  0.00000000E+00  0.00000000E+00
  0.00000000E+00  0.00000000E+00  0.00000000E+00
  0.00000000E+00  0.00000000E+00  0.00000000E+00
  0.00000000E+00  0.00000000E+00  0.00000000E+00
  0.00000000E+00  0.00000000E+00  0.00000000E+00
  0.00000000E+00  0.00000000E+00  0.00000000E+00
  0.00000000E+00  0.00000000E+00  0.00000000E+00
  0.00000000E+00  0.00000000E+00  0.00000000E+00
  0.00000000E+00  0.00000000E+00  0.00000000E+00
  0.00000000E+00  0.00000000E+00  0.00000000E+00
  0.00000000E+00  0.00000000E+00  0.00000000E+00
  0.00000000E+00  0.00000000E+00  0.00000000E+00
  0.00000000E+00  0.00000000E+00  0.00000000E+00
  0.00000000E+00  0.00000000E+00  0.00000000E+00
  0.00000000E+00  0.00000000E+00  0.00000000E+00
  0.00000000E+00  0.00000000E+00  0.00000000E+00
  0.00000000E+00  0.00000000E+00  0.00000000E+00
  0.00000000E+00  0.00000000E+00  0.00000000E+00
  0.00000000E+00  0.00000000E+00  0.00000000E+00
  0.00000000E+00  0.00000000E+00  0.00000000E+00
  0.00000000E+00  0.00000000E+00  0.00000000E+00
  0.00000000E+00  0.00000000E+00  0.00000000E+00
  0.00000000E+00  0.00000000E+00  0.00000000E+00
  0.00000000E+00  0.00000000E+00  0.00000000E+00
  0.00000000E+00  0.00000000E+00  0.00000000E+00
  0.00000000E+00  0.00000000E+00  0.00000000E+00
  0.00000000E+00  0.00000000E+00  0.00000000E+00
