pymatgen with grid density = 901 / number of atoms
0
Gamma
7 7 7
