Y36 Ti36 S36 O90                        
   1.00000000000000     
    11.2707239999999995    0.0000000000000000    0.0000000000000000
     0.0000000000000000   11.2707239999999995    0.0000000000000000
     0.0000000000000000    0.0000000000000000   22.8393189999999997
   Y    Ti   S    O 
    36    36    36    90
Direct
  0.1666669352194674  0.1666669519691695  0.1661153885367047
  0.1666668581004558  0.5000000002040466  0.1661153230467268
  0.1666669336690418  0.8333330591444508  0.1661153723761847
  0.5000000086237719  0.1666669060729831  0.1661153421409215
  0.5000000216102976  0.4999999779997637  0.1661152673514882
  0.5000000013014372  0.8333331050805484  0.1661153588362102
  0.8333330559211802  0.1666669485653642  0.1661153809198002
  0.8333331093512086  0.4999999960572623  0.1661153278071713
  0.8333330679184812  0.8333330215763297  0.1661153866764967
  0.0000000296194926  0.9999999845033116  0.3338847222010040
  0.0000000070046156  0.3333331219741282  0.3338846606933197
  0.0000000143611558  0.6666668816484673  0.3338846631292805
  0.3333331359175560  0.0000000090968371  0.3338846866801342
  0.3333330645346066  0.3333330286793057  0.3338846270021188
  0.3333330560620311  0.6666669611671239  0.3338846434196990
  0.6666668480901308  0.9999999731099720  0.3338846775823095
  0.6666669303520152  0.3333330769050917  0.3338846195988959
  0.6666669409780397  0.6666669358712909  0.3338846167996275
  0.0000000214531894  0.9999999774873061  0.6661152704186957
  0.9999999995737241  0.3333331058518638  0.6661153433258231
  0.9999999868067775  0.6666668949091985  0.6661153462984568
  0.3333330944142006  0.9999999836668110  0.6661153154030994
  0.3333330846698814  0.3333330246471249  0.6661153567425966
  0.3333330548703231  0.6666669608175013  0.6661153848085657
  0.6666668794767929  0.9999999679056231  0.6661153365511179
  0.6666669204731406  0.3333330659649789  0.6661153662739305
  0.6666669625113784  0.6666669443609052  0.6661153734853495
  0.1666669491702351  0.1666669487757062  0.8338846312680108
  0.1666668969485912  0.4999999665235535  0.8338846808090683
  0.1666669196537001  0.8333330607670320  0.8338846279977379
  0.5000000104438627  0.1666669272390919  0.8338846606196644
  0.5000000110523501  0.4999999799207515  0.8338847270159182
  0.5000000061663101  0.8333330960848073  0.8338846588630464
  0.8333330347658787  0.1666669433337660  0.8338846163959748
  0.8333330741557390  0.4999999889780611  0.8338846768382500
  0.8333330625240265  0.8333330560164782  0.8338846156443698
  0.1666668862004812  0.1666668458450076  0.4215425248398747
  0.1666667909464152  0.4999999759647338  0.4215424184985496
  0.1666668289849227  0.8333331827912076  0.4215425292562815
  0.4999999423382491  0.1666668651805381  0.4215424637434881
  0.5000000017548558  0.4999999904732348  0.4215423647024496
  0.4999999565509654  0.8333332356977294  0.4215424481207636
  0.8333331859128847  0.1666668412140453  0.4215425308563243
  0.8333331169835034  0.4999999572868674  0.4215424147548421
  0.8333331564903546  0.8333331579916390  0.4215425199899303
  0.9999999743974470  0.0000000527111865  0.0784576221429386
  0.9999999952021454  0.3333331008599032  0.0784575202815428
  0.9999999179737529  0.6666668472848016  0.0784575275108959
  0.3333331522836431  0.9999999683748086  0.0784575319781207
  0.3333331437348903  0.3333331643632604  0.0784574700879229
  0.3333331009914673  0.6666668018298125  0.0784574426908729
  0.6666668458568594  0.9999999836678626  0.0784575415016316
  0.6666669323872227  0.3333331694776973  0.0784574215467269
  0.6666668972125009  0.6666669512752748  0.0784574672847820
  0.9999999771926511  0.0000000786700198  0.9215423742873450
  0.9999999358635066  0.3333331685143222  0.9215424413033271
  0.9999999604160976  0.6666668518425851  0.9215424681197499
  0.3333331047064689  0.9999999441279002  0.9215424515517621
  0.3333331071748873  0.3333331823461236  0.9215425371886321
  0.3333331166383644  0.6666668415158981  0.9215425444733862
  0.6666668467507364  0.9999999585327330  0.9215424917395760
  0.6666669086199377  0.3333331641126307  0.9215425832273676
  0.6666668701446383  0.6666668624396266  0.9215425364879517
  0.1666669102338716  0.1666669278455615  0.5784575046208251
  0.1666668366200810  0.4999999565731841  0.5784576075487953
  0.1666668631273183  0.8333332027828320  0.5784574518465495
  0.4999998925788063  0.1666668146623707  0.5784575539161414
  0.5000000197861638  0.5000000226030963  0.5784576078200023
  0.4999999775684287  0.8333332091446408  0.5784575381586270
  0.8333331349856721  0.1666668594328797  0.5784574438787649
  0.8333331506970794  0.4999999762806198  0.5784575890664703
  0.8333331026600206  0.8333331524343208  0.5784575145495159
  0.1666669535239151  0.1666669146393431  0.2952087518135239
  0.1666669322106173  0.5000000079101525  0.2952087937321489
  0.1666669153259335  0.8333330882619379  0.2952087820109507
  0.4999999967980813  0.1666668806635840  0.2952087848201382
  0.5000000392304429  0.4999999894943272  0.2952088736820836
  0.5000000006834355  0.8333330914534045  0.2952088402723002
  0.8333330558485699  0.1666669136385224  0.2952088030215217
  0.8333330587835093  0.5000000131526008  0.2952088200333004
  0.8333330790520392  0.8333330542220665  0.2952087816420866
  0.9999999911718618  0.0000000406031262  0.2047911497869652
  0.0000000036094292  0.3333330453396570  0.2047911958200377
  0.9999999848082695  0.6666669396561673  0.2047911801853051
  0.3333330599228148  0.0000000362072825  0.2047911782473922
  0.3333330511145363  0.3333330789771978  0.2047912259065914
  0.3333330964331438  0.6666669191300727  0.2047912205501224
  0.6666669266098921  0.9999999979254568  0.2047911607317534
  0.6666669409915897  0.3333330588723413  0.2047912098307610
  0.6666669595298771  0.6666669144309054  0.2047912082287784
  0.0000000161308975  0.9999999942927289  0.7952088544379645
  0.0000000404289580  0.3333330975397075  0.7952088412222746
  0.0000000046078483  0.6666669024044367  0.7952088085999289
  0.3333330791740323  0.0000000262877720  0.7952088121976626
  0.3333330705373285  0.3333330708326088  0.7952087840429609
  0.3333330922308093  0.6666668867113259  0.7952087749982706
  0.6666669438047634  0.9999999934051189  0.7952088117526497
  0.6666669095916617  0.3333330917395259  0.7952088115958684
  0.6666669026040992  0.6666669195244168  0.7952088045001471
  0.1666669610714919  0.1666668824085917  0.7047911998911207
  0.1666669150141331  0.4999999740568057  0.7047911795677226
  0.1666669359362274  0.8333330799319825  0.7047912349040519
  0.4999999878770751  0.1666669080664747  0.7047911764745951
  0.5000000147373740  0.5000000096294670  0.7047911521331560
  0.4999999974299314  0.8333330658554274  0.7047911681210071
  0.8333330962210752  0.1666669529929408  0.7047912201232140
  0.8333330552686817  0.5000000274398815  0.7047911656868084
  0.8333330616183616  0.8333330666058529  0.7047911934775630
  0.9999999958384649  0.9999999883738511  0.0000000037572647
  0.9999999445741210  0.3333329892366734  0.0000000025895943
  0.0000000165901639  0.6666669948549924  0.9999999906857582
  0.3333329623413448  0.0000000386943739  0.0000000033755470
  0.3333329581942337  0.3333329307360273  0.0000000058527050
  0.3333329136654299  0.6666670560830426  0.0000000074585245
  0.6666670490137960  0.0000000150310839  0.9999999796734755
  0.6666670342948322  0.3333329458103833  0.9999999917985036
  0.6666670741448328  0.6666670201159519  0.0000000065466637
  0.0000000133501246  0.1666670816445190  0.4010163429410650
  0.0000000271853438  0.4999999800094272  0.4010163102784458
  0.0000000404312601  0.8333329641447946  0.4010163540231656
  0.3333332904022157  0.1666669361506194  0.4010163305533067
  0.3333332771326099  0.5000000251515715  0.4010163298521999
  0.3333332662198103  0.8333330443619431  0.4010163355645301
  0.6666667015217342  0.1666669546645068  0.4010163326927153
  0.6666667778296471  0.4999999769453751  0.4010163418903357
  0.6666667195308449  0.8333330759299642  0.4010163267514412
  0.9999999917359048  0.1666667476745189  0.0989836530832777
  0.9999999775024051  0.5000000058600307  0.0989836931440324
  0.0000000148097499  0.8333332466356467  0.0989836658878618
  0.3333330513012669  0.1666667637297721  0.0989836563968298
  0.3333329736220776  0.4999999951662844  0.0989836609355494
  0.3333330642440160  0.8333333023582838  0.0989836653824740
  0.6666669479696949  0.1666667406372682  0.0989836562457400
  0.6666670678594429  0.4999999440626510  0.0989836684387812
  0.6666669597601995  0.8333332460658269  0.0989836420640744
  0.1666670713027116  0.9999999792987850  0.4010163303873523
  0.1666669729165591  0.3333332679651662  0.4010163270121961
  0.1666669413802992  0.6666667372581756  0.4010163422682308
  0.4999999871613454  0.9999999705525724  0.4010163106972325
  0.4999999882020489  0.3333332332324304  0.4010163472960525
  0.4999999997171969  0.6666667427035620  0.4010163168097759
  0.8333329664251323  0.0000000008357404  0.4010163443650921
  0.8333330754096764  0.3333333027513561  0.4010163394612886
  0.8333330474800746  0.6666667488812905  0.4010163467964202
  0.1666667771708674  0.9999999759711358  0.0989836733039668
  0.1666667512170648  0.3333330682742428  0.0989836573243439
  0.1666667844135858  0.6666669496777331  0.0989836741378527
  0.5000000271271574  0.9999999648757552  0.0989836886652968
  0.5000000138279361  0.3333329793868671  0.0989836736081502
  0.5000000001611085  0.6666670592387121  0.0989836664045045
  0.8333332598219272  0.0000000128265754  0.0989836613345831
  0.8333332276267456  0.3333330285051588  0.0989836737891751
  0.8333332701347729  0.6666669643318102  0.0989836757218443
  0.1666670808932622  0.1666670617249224  0.4999999900254792
  0.1666670322375055  0.5000000213769979  0.4999999973048119
  0.1666670457116766  0.8333329125879629  0.5000000094648556
  0.5000000321831237  0.1666670154271017  0.4999999940430015
  0.4999999941057780  0.5000000022073152  0.5000000064023169
  0.4999999701562956  0.8333329463367036  0.5000000132592106
  0.8333328819375723  0.1666670635828709  0.5000000065615779
  0.8333329864922021  0.5000000223818404  0.4999999943620352
  0.8333328990966891  0.8333329273441450  0.4999999894457332
  0.1666667794385575  0.0000000001976090  0.9010163141074332
  0.1666667623949323  0.3333330824675542  0.9010163387410119
  0.1666667710614362  0.6666669421937783  0.9010163273080241
  0.5000000231540795  0.9999999791743335  0.9010163137148157
  0.5000000191823446  0.3333329655072816  0.9010163373037332
  0.4999999892125331  0.6666670755489079  0.9010163315744140
  0.8333332581549513  0.0000000237840752  0.9010163293441624
  0.8333332285825747  0.3333330122481399  0.9010163210570101
  0.8333332577543260  0.6666669524305959  0.9010163288762771
  0.1666670468010381  0.9999999516884230  0.5989836507856663
  0.1666669465899489  0.3333332189743530  0.5989836570862761
  0.1666669336934135  0.6666667565704074  0.5989836697270019
  0.5000000020851232  0.9999999904610206  0.5989836787469724
  0.5000000034670080  0.3333332547379797  0.5989836680208751
  0.4999999908652839  0.6666667415783749  0.5989836660916166
  0.8333329327223780  0.0000000115282290  0.5989836659323697
  0.8333330873860447  0.3333332879936322  0.5989836584923194
  0.8333330530150178  0.6666667351386124  0.5989836630844505
  0.9999999733259060  0.1666667412903635  0.9010163340372190
  0.9999999990373567  0.4999999972679205  0.9010163099828676
  0.9999999867281630  0.8333332040901382  0.9010163298194587
  0.3333330484919514  0.1666667373136761  0.9010163345020561
  0.3333329725227117  0.4999999936923771  0.9010163584988820
  0.3333330594535298  0.8333333035210657  0.9010163329181569
  0.6666669455994025  0.1666667259250474  0.9010163348562616
  0.6666670693106340  0.4999999905505703  0.9010163299458003
  0.6666669677844084  0.8333333035394546  0.9010163512823826
  0.9999999924894922  0.1666670596574136  0.5989836791214924
  0.9999999878523056  0.4999999764186853  0.5989837013145132
  0.0000000507663174  0.8333329761968926  0.5989836771351418
  0.3333332912249318  0.1666669142729873  0.5989836552290311
  0.3333332485934903  0.5000000281253563  0.5989836735511429
  0.3333332590043625  0.8333330517155915  0.5989836745794404
  0.6666667208702393  0.1666669303841886  0.5989836744136920
  0.6666667409880347  0.4999999829688377  0.5989836469888243
  0.6666667453547319  0.8333330978496534  0.5989836665397132
 
  0.00000000E+00  0.00000000E+00  0.00000000E+00
  0.00000000E+00  0.00000000E+00  0.00000000E+00
  0.00000000E+00  0.00000000E+00  0.00000000E+00
  0.00000000E+00  0.00000000E+00  0.00000000E+00
  0.00000000E+00  0.00000000E+00  0.00000000E+00
  0.00000000E+00  0.00000000E+00  0.00000000E+00
  0.00000000E+00  0.00000000E+00  0.00000000E+00
  0.00000000E+00  0.00000000E+00  0.00000000E+00
  0.00000000E+00  0.00000000E+00  0.00000000E+00
  0.00000000E+00  0.00000000E+00  0.00000000E+00
  0.00000000E+00  0.00000000E+00  0.00000000E+00
  0.00000000E+00  0.00000000E+00  0.00000000E+00
  0.00000000E+00  0.00000000E+00  0.00000000E+00
  0.00000000E+00  0.00000000E+00  0.00000000E+00
  0.00000000E+00  0.00000000E+00  0.00000000E+00
  0.00000000E+00  0.00000000E+00  0.00000000E+00
  0.00000000E+00  0.00000000E+00  0.00000000E+00
  0.00000000E+00  0.00000000E+00  0.00000000E+00
  0.00000000E+00  0.00000000E+00  0.00000000E+00
  0.00000000E+00  0.00000000E+00  0.00000000E+00
  0.00000000E+00  0.00000000E+00  0.00000000E+00
  0.00000000E+00  0.00000000E+00  0.00000000E+00
  0.00000000E+00  0.00000000E+00  0.00000000E+00
  0.00000000E+00  0.00000000E+00  0.00000000E+00
  0.00000000E+00  0.00000000E+00  0.00000000E+00
  0.00000000E+00  0.00000000E+00  0.00000000E+00
  0.00000000E+00  0.00000000E+00  0.00000000E+00
  0.00000000E+00  0.00000000E+00  0.00000000E+00
  0.00000000E+00  0.00000000E+00  0.00000000E+00
  0.00000000E+00  0.00000000E+00  0.00000000E+00
  0.00000000E+00  0.00000000E+00  0.00000000E+00
  0.00000000E+00  0.00000000E+00  0.00000000E+00
  0.00000000E+00  0.00000000E+00  0.00000000E+00
  0.00000000E+00  0.00000000E+00  0.00000000E+00
  0.00000000E+00  0.00000000E+00  0.00000000E+00
  0.00000000E+00  0.00000000E+00  0.00000000E+00
  0.00000000E+00  0.00000000E+00  0.00000000E+00
  0.00000000E+00  0.00000000E+00  0.00000000E+00
  0.00000000E+00  0.00000000E+00  0.00000000E+00
  0.00000000E+00  0.00000000E+00  0.00000000E+00
  0.00000000E+00  0.00000000E+00  0.00000000E+00
  0.00000000E+00  0.00000000E+00  0.00000000E+00
  0.00000000E+00  0.00000000E+00  0.00000000E+00
  0.00000000E+00  0.00000000E+00  0.00000000E+00
  0.00000000E+00  0.00000000E+00  0.00000000E+00
  0.00000000E+00  0.00000000E+00  0.00000000E+00
  0.00000000E+00  0.00000000E+00  0.00000000E+00
  0.00000000E+00  0.00000000E+00  0.00000000E+00
  0.00000000E+00  0.00000000E+00  0.00000000E+00
  0.00000000E+00  0.00000000E+00  0.00000000E+00
  0.00000000E+00  0.00000000E+00  0.00000000E+00
  0.00000000E+00  0.00000000E+00  0.00000000E+00
  0.00000000E+00  0.00000000E+00  0.00000000E+00
  0.00000000E+00  0.00000000E+00  0.00000000E+00
  0.00000000E+00  0.00000000E+00  0.00000000E+00
  0.00000000E+00  0.00000000E+00  0.00000000E+00
  0.00000000E+00  0.00000000E+00  0.00000000E+00
  0.00000000E+00  0.00000000E+00  0.00000000E+00
  0.00000000E+00  0.00000000E+00  0.00000000E+00
  0.00000000E+00  0.00000000E+00  0.00000000E+00
  0.00000000E+00  0.00000000E+00  0.00000000E+00
  0.00000000E+00  0.00000000E+00  0.00000000E+00
  0.00000000E+00  0.00000000E+00  0.00000000E+00
  0.00000000E+00  0.00000000E+00  0.00000000E+00
  0.00000000E+00  0.00000000E+00  0.00000000E+00
  0.00000000E+00  0.00000000E+00  0.00000000E+00
  0.00000000E+00  0.00000000E+00  0.00000000E+00
  0.00000000E+00  0.00000000E+00  0.00000000E+00
  0.00000000E+00  0.00000000E+00  0.00000000E+00
  0.00000000E+00  0.00000000E+00  0.00000000E+00
  0.00000000E+00  0.00000000E+00  0.00000000E+00
  0.00000000E+00  0.00000000E+00  0.00000000E+00
  0.00000000E+00  0.00000000E+00  0.00000000E+00
  0.00000000E+00  0.00000000E+00  0.00000000E+00
  0.00000000E+00  0.00000000E+00  0.00000000E+00
  0.00000000E+00  0.00000000E+00  0.00000000E+00
  0.00000000E+00  0.00000000E+00  0.00000000E+00
  0.00000000E+00  0.00000000E+00  0.00000000E+00
  0.00000000E+00  0.00000000E+00  0.00000000E+00
  0.00000000E+00  0.00000000E+00  0.00000000E+00
  0.00000000E+00  0.00000000E+00  0.00000000E+00
  0.00000000E+00  0.00000000E+00  0.00000000E+00
  0.00000000E+00  0.00000000E+00  0.00000000E+00
  0.00000000E+00  0.00000000E+00  0.00000000E+00
  0.00000000E+00  0.00000000E+00  0.00000000E+00
  0.00000000E+00  0.00000000E+00  0.00000000E+00
  0.00000000E+00  0.00000000E+00  0.00000000E+00
  0.00000000E+00  0.00000000E+00  0.00000000E+00
  0.00000000E+00  0.00000000E+00  0.00000000E+00
  0.00000000E+00  0.00000000E+00  0.00000000E+00
  0.00000000E+00  0.00000000E+00  0.00000000E+00
  0.00000000E+00  0.00000000E+00  0.00000000E+00
  0.00000000E+00  0.00000000E+00  0.00000000E+00
  0.00000000E+00  0.00000000E+00  0.00000000E+00
  0.00000000E+00  0.00000000E+00  0.00000000E+00
  0.00000000E+00  0.00000000E+00  0.00000000E+00
  0.00000000E+00  0.00000000E+00  0.00000000E+00
  0.00000000E+00  0.00000000E+00  0.00000000E+00
  0.00000000E+00  0.00000000E+00  0.00000000E+00
  0.00000000E+00  0.00000000E+00  0.00000000E+00
  0.00000000E+00  0.00000000E+00  0.00000000E+00
  0.00000000E+00  0.00000000E+00  0.00000000E+00
  0.00000000E+00  0.00000000E+00  0.00000000E+00
  0.00000000E+00  0.00000000E+00  0.00000000E+00
  0.00000000E+00  0.00000000E+00  0.00000000E+00
  0.00000000E+00  0.00000000E+00  0.00000000E+00
  0.00000000E+00  0.00000000E+00  0.00000000E+00
  0.00000000E+00  0.00000000E+00  0.00000000E+00
  0.00000000E+00  0.00000000E+00  0.00000000E+00
  0.00000000E+00  0.00000000E+00  0.00000000E+00
  0.00000000E+00  0.00000000E+00  0.00000000E+00
  0.00000000E+00  0.00000000E+00  0.00000000E+00
  0.00000000E+00  0.00000000E+00  0.00000000E+00
  0.00000000E+00  0.00000000E+00  0.00000000E+00
  0.00000000E+00  0.00000000E+00  0.00000000E+00
  0.00000000E+00  0.00000000E+00  0.00000000E+00
  0.00000000E+00  0.00000000E+00  0.00000000E+00
  0.00000000E+00  0.00000000E+00  0.00000000E+00
  0.00000000E+00  0.00000000E+00  0.00000000E+00
  0.00000000E+00  0.00000000E+00  0.00000000E+00
  0.00000000E+00  0.00000000E+00  0.00000000E+00
  0.00000000E+00  0.00000000E+00  0.00000000E+00
  0.00000000E+00  0.00000000E+00  0.00000000E+00
  0.00000000E+00  0.00000000E+00  0.00000000E+00
  0.00000000E+00  0.00000000E+00  0.00000000E+00
  0.00000000E+00  0.00000000E+00  0.00000000E+00
  0.00000000E+00  0.00000000E+00  0.00000000E+00
  0.00000000E+00  0.00000000E+00  0.00000000E+00
  0.00000000E+00  0.00000000E+00  0.00000000E+00
  0.00000000E+00  0.00000000E+00  0.00000000E+00
  0.00000000E+00  0.00000000E+00  0.00000000E+00
  0.00000000E+00  0.00000000E+00  0.00000000E+00
  0.00000000E+00  0.00000000E+00  0.00000000E+00
  0.00000000E+00  0.00000000E+00  0.00000000E+00
  0.00000000E+00  0.00000000E+00  0.00000000E+00
  0.00000000E+00  0.00000000E+00  0.00000000E+00
  0.00000000E+00  0.00000000E+00  0.00000000E+00
  0.00000000E+00  0.00000000E+00  0.00000000E+00
  0.00000000E+00  0.00000000E+00  0.00000000E+00
  0.00000000E+00  0.00000000E+00  0.00000000E+00
  0.00000000E+00  0.00000000E+00  0.00000000E+00
  0.00000000E+00  0.00000000E+00  0.00000000E+00
  0.00000000E+00  0.00000000E+00  0.00000000E+00
  0.00000000E+00  0.00000000E+00  0.00000000E+00
  0.00000000E+00  0.00000000E+00  0.00000000E+00
  0.00000000E+00  0.00000000E+00  0.00000000E+00
  0.00000000E+00  0.00000000E+00  0.00000000E+00
  0.00000000E+00  0.00000000E+00  0.00000000E+00
  0.00000000E+00  0.00000000E+00  0.00000000E+00
  0.00000000E+00  0.00000000E+00  0.00000000E+00
  0.00000000E+00  0.00000000E+00  0.00000000E+00
  0.00000000E+00  0.00000000E+00  0.00000000E+00
  0.00000000E+00  0.00000000E+00  0.00000000E+00
  0.00000000E+00  0.00000000E+00  0.00000000E+00
  0.00000000E+00  0.00000000E+00  0.00000000E+00
  0.00000000E+00  0.00000000E+00  0.00000000E+00
  0.00000000E+00  0.00000000E+00  0.00000000E+00
  0.00000000E+00  0.00000000E+00  0.00000000E+00
  0.00000000E+00  0.00000000E+00  0.00000000E+00
  0.00000000E+00  0.00000000E+00  0.00000000E+00
  0.00000000E+00  0.00000000E+00  0.00000000E+00
  0.00000000E+00  0.00000000E+00  0.00000000E+00
  0.00000000E+00  0.00000000E+00  0.00000000E+00
  0.00000000E+00  0.00000000E+00  0.00000000E+00
  0.00000000E+00  0.00000000E+00  0.00000000E+00
  0.00000000E+00  0.00000000E+00  0.00000000E+00
  0.00000000E+00  0.00000000E+00  0.00000000E+00
  0.00000000E+00  0.00000000E+00  0.00000000E+00
  0.00000000E+00  0.00000000E+00  0.00000000E+00
  0.00000000E+00  0.00000000E+00  0.00000000E+00
  0.00000000E+00  0.00000000E+00  0.00000000E+00
  0.00000000E+00  0.00000000E+00  0.00000000E+00
  0.00000000E+00  0.00000000E+00  0.00000000E+00
  0.00000000E+00  0.00000000E+00  0.00000000E+00
  0.00000000E+00  0.00000000E+00  0.00000000E+00
  0.00000000E+00  0.00000000E+00  0.00000000E+00
  0.00000000E+00  0.00000000E+00  0.00000000E+00
  0.00000000E+00  0.00000000E+00  0.00000000E+00
  0.00000000E+00  0.00000000E+00  0.00000000E+00
  0.00000000E+00  0.00000000E+00  0.00000000E+00
  0.00000000E+00  0.00000000E+00  0.00000000E+00
  0.00000000E+00  0.00000000E+00  0.00000000E+00
  0.00000000E+00  0.00000000E+00  0.00000000E+00
  0.00000000E+00  0.00000000E+00  0.00000000E+00
  0.00000000E+00  0.00000000E+00  0.00000000E+00
  0.00000000E+00  0.00000000E+00  0.00000000E+00
  0.00000000E+00  0.00000000E+00  0.00000000E+00
  0.00000000E+00  0.00000000E+00  0.00000000E+00
  0.00000000E+00  0.00000000E+00  0.00000000E+00
  0.00000000E+00  0.00000000E+00  0.00000000E+00
  0.00000000E+00  0.00000000E+00  0.00000000E+00
  0.00000000E+00  0.00000000E+00  0.00000000E+00
  0.00000000E+00  0.00000000E+00  0.00000000E+00
  0.00000000E+00  0.00000000E+00  0.00000000E+00
  0.00000000E+00  0.00000000E+00  0.00000000E+00
  0.00000000E+00  0.00000000E+00  0.00000000E+00
  0.00000000E+00  0.00000000E+00  0.00000000E+00
  0.00000000E+00  0.00000000E+00  0.00000000E+00
