KPOINTS from doped, with reciprocal_density = 105/Å⁻³
0
Gamma
8 8 8
