Ga1 As1
1.0
3.521253 0.000000 2.032997
1.173751 3.319869 2.032997
0.000000 0.000000 4.065993
Ga As
1 1
direct
0.000000 0.000000 0.000000 Ga
0.250000 0.250000 0.250000 As
