Ga4 As4
1.0
5.750183 0.000000 0.000000
0.000000 5.750183 0.000000
0.000000 0.000000 5.750183
Ga As
4 4
direct
0.000000 0.000000 0.000000 Ga
0.000000 0.500000 0.500000 Ga
0.500000 0.000000 0.500000 Ga
0.500000 0.500000 0.000000 Ga
0.250000 0.250000 0.750000 As
0.250000 0.750000 0.250000 As
0.750000 0.250000 0.250000 As
0.750000 0.750000 0.750000 As
