Cr4 O6
1.0
4.488569 -0.018067 3.096936
1.616215 4.187532 3.096936
-0.026453 -0.018067 5.453216
O Cr
6 4
direct
0.050890 0.750000 0.449110 O
0.750000 0.449110 0.050890 O
0.449110 0.050890 0.750000 O
0.949110 0.250000 0.550890 O
0.550890 0.949110 0.250000 O
0.250000 0.550890 0.949110 O
0.849715 0.849715 0.849715 Cr
0.650285 0.650285 0.650285 Cr
0.150285 0.150285 0.150285 Cr
0.349715 0.349715 0.349715 Cr
