Unperturbed N(Distort)=4 ~[0.5,0.5,0.5] 
   1.00000000000000     
    12.5998379999999983    0.0000000000000004    0.0000000000000004
     0.0000000000000004   12.5998379999999983   -0.0000000000000004
    -0.0000000000000004   -0.0000000000000004   12.5998379999999983
   Mg   O 
   109   107
Direct
  0.6670901148515077 -0.0001795332389956 -0.0001774677126325
  0.8337041144306532  0.1662943641061410 -0.0003378476761397
  0.8337027140356116 -0.0003390093342619  0.1662957816029254
  0.3329098838438477  0.0001795343820531  0.0001774681722257
  0.5000591837259275  0.1655193934071381 -0.0005533544578698
  0.6673820238672814  0.3326232551480642 -0.0006964857614421
  0.8344793529762068  0.4999402971516963 -0.0005575641357134
  0.5000567511396448 -0.0005535905174213  0.1655186385355936
  0.6676662026849379  0.1656636569373503  0.1656647996644172
  0.8343437522032754  0.3323436495969092  0.1656629135804323
  0.6673816729028462 -0.0006974688788894  0.3326248607578779
  0.8343450049113811  0.1656618416764145  0.3323451709210742
  0.8344802427095120 -0.0005584129873076  0.4999424827264566
  0.0000000006930832  0.0000000005572629 -0.0000000000519047
  0.1665314588848439  0.1665300679035840  0.0000048589914647
  0.3328374935362673  0.3328420703281454  0.0000046693128509
  0.5000000002865258  0.4999999999218239 -0.0000000040193457
  0.6671625080218536  0.6671579318252997 -0.0000046720537157
  0.8334685421391055  0.8334699333343838 -0.0000048588294228
  0.1665292609680355  0.0000060096033739  0.1665274117234365
  0.3329113226847034  0.1662812634263690  0.1662799641417177
  0.5004541668862099  0.3291074854109982  0.1626018402789935
  0.6709007232356159  0.4995511644329300  0.1625989280357237
  0.8337220827591504  0.6670966859661879  0.1662698711447404
  0.3328345086212076  0.0000057819018159  0.3328401073705677
  0.5004532438303156  0.1626011990968426  0.3291077458582499
  0.6682180532829181  0.3317916327211005  0.3317933303540009
  0.8374057538776839  0.4995572358911851  0.3290984944887966
  0.5000000004420539 -0.0000000087427842  0.5000000002319107
  0.6709028198674725  0.1625981034939067  0.4995530280953287
  0.8374058710027501  0.3290977165749682  0.4995578216684871
  0.6671654920055775 -0.0000057868387782  0.6671598941485944
  0.8337247754957805  0.1662691014693554  0.6670985310024796
  0.8334707404137868 -0.0000060087124557  0.8334725887553531
  0.0001795475716966  0.3329081259351341 -0.0001720747845975
  0.1655206481588036  0.5000597043028534  0.0005575641446427
  0.3326179765835754  0.6673767447753748  0.0006964834975724
  0.4999408154314247  0.8344806090634093  0.0005533540017753
  0.0003450039482385  0.1663029540839280  0.1663026654599896
  0.1668172695932367  0.3327579898363979  0.1664459630866467
  0.3314756476050091  0.4999072021228310  0.1647295730934925
  0.5001025479529470  0.6685348929996668  0.1647205186541072
  0.6672512771042793  0.8331843058921249  0.1664401953202631
  0.0001783534800490 -0.0001718925515157  0.3329079586060470
  0.1668169900124391  0.1664464786467784  0.3327561998074396
  0.3343406219805276  0.3334866025541839  0.3334856649532394
  0.5044589915159239  0.4955492265200808  0.3106036953952042
  0.6665146012688171  0.6656611715522278  0.3334777626512640
  0.8335560364072602  0.8331867185353334  0.3327376373506906
  0.1655197585458549  0.0005584119876322  0.5000575184795466
  0.3314777452795045  0.1647295649327812  0.4999055992242813
  0.5044590139652605  0.3106044149084385  0.4955502027161226
  0.6893911920687440  0.4955428579485530  0.4955446017680091
  0.8352781785019204  0.6685263684153446  0.4998873295155001
  0.3326183281984996  0.0006974646206095  0.6673751386447728
  0.5001075472482489  0.1647184703125666  0.6685364651462700
  0.6665160608936339  0.3334774687571984  0.6656617329415873
  0.8352810190880662  0.4998826744940311  0.6685290306455377
  0.4999432483455047  0.0005535891749665  0.8344813620135784
  0.6672551845957192  0.1664389448962859  0.8331863259965142
  0.8335573624153441  0.3327356513556376  0.8331876962935887
 -0.0001795460086522  0.6670918759297880  0.0001720752207030
  0.1662958853220195  0.8337056379637660  0.0003378471178705
  0.0005555572450972  0.4999568607613573  0.1655138846143438
  0.1664426395644604  0.6672643487024500  0.1668123035998393
  0.3327448171154305  0.8335610541307755  0.1668136732052009
  0.0007036389256647  0.3326256836239037  0.3326256083630623
  0.1647189709021530  0.5001173267482615  0.3314709687917035
  0.3334839447021015  0.6665225342745171  0.3343382693748936
  0.4998924537885166  0.8352815211675909  0.3314635404203891
  0.0005569239452791  0.1655143962445213  0.4999571070827983
  0.1647218128692335  0.3314736339628925  0.5001126713652443
  0.3106087228944406  0.5044571802215663  0.5044554194844293
  0.4955410354951403  0.6893955330082173  0.5044498011245082
  0.6685222569857093  0.8352704312775733  0.5000944017868422
 -0.0001783517768527  0.0001718940254383  0.6670920435082283
  0.1664439658873064  0.1668132820974049  0.6672623617612804
  0.3334854054021424  0.3343388354252232  0.6665222368829662
  0.4955410533554850  0.5044507986505238  0.6893962851691077
  0.6656593888284872  0.6665134039645481  0.6665143394267685
  0.8331830128051996  0.8335535210892350  0.6672437999612297
  0.1662972852164937  0.0003390087865510  0.8337042195993456
  0.3327487246434474  0.1668156947903465  0.8335598029697493
  0.4998974532711055  0.3314651137474862  0.8352794763951533
  0.6685243564788249  0.5000927987144541  0.8352704268985306
  0.8331827336126693  0.6672420108075535  0.8335540371338142
 -0.0000010392673777  0.8334841695744665  0.1665154015819267
 -0.0000018835317216  0.6671762526870603  0.3328245651146017
  0.1662752265017506  0.8337308983777402  0.3329014693538371
 -0.0000000121658390  0.5000000004083734  0.5000000002991549
  0.1625941147625394  0.6709022950214490  0.5004421779322248
  0.3290971911650769  0.8374018841768297  0.5004469727564429
  0.0000018810815921  0.3328237472911160  0.6671754341728572
  0.1625942333281988  0.5004427647621971  0.6709015148216204
  0.3317819506422871  0.6682083719334242  0.6682066722881959
  0.4995467580066045  0.8373987936966703  0.6708922490128151
  0.0000010398188227  0.1665158309652112  0.8334845981952683
  0.1662779192891440  0.3329033149666580  0.8337301280991334
  0.3290992837713830  0.5004488367050249  0.8374010648983757
  0.4995458354117131  0.6708925154035313  0.8373981588765234
  0.6670886784109296  0.8337187373591917  0.8337200365280023
 -0.0005569275244726  0.8344856076104473  0.5000428943902857
 -0.0007036424170658  0.6673743175800438  0.6673743930796618
  0.1656549969801560  0.8343381574434016  0.6676548308125602
 -0.0005555603794019  0.5000431409357184  0.8344861181406675
  0.1656562495439293  0.6676563521185441  0.8343370852237810
  0.3323337967688273  0.8343363422109159  0.8343351999722242
 -0.0003450027983097  0.8336970482775442  0.8336973361589582
  0.4999999051061877  0.4999999312779777  0.4999999727636902
  0.8337995082709589  0.1662056166513824  0.1662063195340895
  0.0006607517523361  0.3331402137552671  0.1663847150179993
  0.0006605530481304  0.1663846691618459  0.3331406078106026
  0.5001735000392432  0.1647231708121505  0.1647238880969768
  0.6673416805406727  0.3326650566668510  0.1652518311553869
  0.8352816866334866  0.4998347180772953  0.1647206507831896
  0.0000661216173686  0.6667257980929227  0.1666966698123943
  0.6673432837259545  0.1652507386465446  0.3326669523143678
  0.8347581837270183  0.3326696682688523  0.3326704648551495
  0.0006332326433743  0.4999201503243045  0.3322782809149367
  0.8352826664343089  0.1647199293405296  0.4998367243975662
  0.0006353401877821  0.3322785725118880  0.4999195917989494
  0.0000687837659601  0.1666963513104662  0.6667257598314571
  0.1669284513525311  0.1667010818874493  0.1667002232676897
  0.3336352806530066  0.3336516179875865  0.1665518647379169
  0.5005462201123720  0.4994636015700671  0.1596712358899765
  0.6663582871084524  0.6663706436275083  0.1665434834230361
  0.8333048348799451  0.8330809989372212  0.1666875577847324
  0.0001252261152711 -0.0001166461208718  0.1665947179503416
  0.3336348607202738  0.1665519532249463  0.3336513726005685
  0.5008174774603421  0.3277996474960324  0.3278022044246915
  0.6722016162972149  0.4991876504208966  0.3278011898127102
  0.8334544312856441  0.6663762423018216  0.3336378684813072
 -0.0000687834585288  0.8333036493668148  0.3332742405507493
  0.5005476477380916  0.1596710058588441  0.4994636006782527
  0.6722031942345750  0.3277998271639081  0.4991880323676920
  0.8403383363659330  0.4994567347547371  0.4994576473571418
 -0.0006353489688900  0.6677214287194769  0.5000804069758256
  0.6663603911355714  0.1665417037749411  0.6663716011509537
  0.8334570179469242  0.3336360776941483  0.6663768222138624
 -0.0006332408425340  0.5000798489321521  0.6677217197571712
  0.8333077260612093  0.1666856753243047  0.8330825129633385
 -0.0000661211947774  0.3332742030607236  0.8333033300490991
  0.0001268154904067  0.1665952121018509 -0.0001168947126596
  0.1668411264991027  0.5000094550978932  0.1668422505856380
  0.3338557939782827  0.6661496603065145  0.1674932736518425
  0.4999985020033142  0.8331652380532398  0.1668346240266933
  0.6668674556479833 -0.0006516775030328  0.1663813445839959
  0.1674954008522074  0.3338655284113223  0.3338643786975796
  0.3355817707307210  0.5000043584710075  0.3355816186320647
  0.4999992054811342  0.6644355310294905  0.3355638699618341
  0.6661416920164689  0.8325061303758055  0.3338521658097109
  0.8336214750084253 -0.0006539706866820  0.3331315072233434
  0.1668430630898905  0.1668432963990313  0.5000079937913946
  0.3355853446696689  0.3355855562228598  0.5000035608985228
  0.6644146886164439  0.6644144783127540  0.4999964417445210
  0.8331569430470516  0.8331567078749506  0.4999920086674789
  0.0000000016532612  0.0000000005258479  0.4999999993756850
  0.3338583097946404  0.1674938713860563  0.6661478321220936
  0.5000008002917710  0.3355644713155138  0.6644361163132568
  0.6644182515958168  0.4999956463505145  0.6644184091550831
  0.8325046035244297  0.6661344765207452  0.6661356264437381
 -0.0006605508262449  0.8336153313827951  0.6668593921771977
  0.5000014957032988  0.1668347618157072  0.8331653732026112
  0.6661442059526795  0.3338503391877919  0.8325067266038177
  0.8331588782484979  0.4999905474618187  0.8331577531640416
 -0.0006607493872902  0.6668597867808799  0.8336152847286533
  0.6668751933178400  0.1663777566194347 -0.0006537274830616
  0.8336227271854998  0.3331258031322274 -0.0006524289588129
  0.0000000008439715  0.4999999989158080  0.0000000001249123
  0.1666922745647776  0.8333143251169897  0.1669174866847784
  0.3332867580377818 -0.0000591198499580  0.1667043473416904
  0.1665429815262017  0.6663639195344802  0.3336231794645402
  0.3336396092739370  0.8334582943446873  0.3336283976190386
  0.5000892734140484 -0.0006281411623560  0.3322786278079471
  0.1596616242124636  0.5005432658880297  0.5005423525131553
  0.3277968011335081  0.6722001645062442  0.5008119685512791
  0.4994523534689654  0.8403289652197649  0.5005364001763860
  0.6677222387894073 -0.0006348230713647  0.4999104814317024
  0.1665455702245080  0.3336237598242599  0.6663621275186992
  0.3277983828755578  0.5008123533196723  0.6721988016918324
  0.4991825318964948  0.6722003545135992  0.6721978006155123
  0.6663651429308071  0.8334480493763614  0.6663486315059587
  0.8332972130023806 -0.0000750028740244  0.6667138476307375
  0.1666951664415658  0.1669190018417186  0.8333124417574712
  0.3336417150788585  0.3336293568775335  0.8334565137548033
  0.4994537815166505  0.5005363995770447  0.8403287534692144
  0.6663647223232368  0.6663483854205763  0.8334481386611152
  0.8330715512162385  0.8332989206391924  0.8332997787212162
 -0.0001252252798700  0.0001166471509578  0.8334052818889206
  0.3332890699500175  0.1667052032273366 -0.0000608803692169
  0.5000907966473510  0.3322782091485273 -0.0006288760356022
  0.6677222167739681  0.4999088098299941 -0.0006343716759162
  0.8332955049234645  0.6667119120941207 -0.0000737198215841
 -0.0001268148287505  0.8334047888725451  0.0001168953766807
  0.1667027882238033  0.0000750050773664  0.3332861540620201
  0.1647173335607965  0.8352800701804834  0.5001632770332192
  0.3322777621129104  0.0006348186508112  0.5000895185645047
  0.1652418141208069  0.6673303310794130  0.6673295335696339
  0.3326567159452513  0.8347492596764419  0.6673330494480825
  0.4999107277690875  0.0006281368373600  0.6677213724812573
  0.1647183131398826  0.5001652831284857  0.8352793484326344
  0.3326583197863794  0.6673349445534295  0.8347481681463830
  0.4998264993647212  0.8352768285579614  0.8352761117102715
  0.6667132421787152  0.0000591217272374  0.8332956537526583
  0.1667044964122351  0.3332880890102910  0.0000737213427461
  0.3322777848413693  0.5000911897520025  0.0006343704685833
  0.4999092050411085  0.6677217917087315  0.0006288744107621
  0.6667109302349350  0.8332947981646195  0.0000608817084855
  0.8334005998575074 -0.0001269313098310 -0.0001250455835256
  0.1663785272556795  0.0006539707294938  0.6668684925319113
  0.1662004934201985  0.8337943831484712  0.8337936798248923
  0.3331325445900357  0.0006516777539513  0.8336186541082764
  0.1663772751840559  0.6668741971936261  0.0006524285173786
  0.3331248071833842  0.8336222428732449  0.0006537273222421
  0.5000000008170423  0.0000000000362257 -0.0000000005093405
  0.1665994014740675  0.0001269326523556  0.0001250458658590
 
  0.00000000E+00  0.00000000E+00  0.00000000E+00
  0.00000000E+00  0.00000000E+00  0.00000000E+00
  0.00000000E+00  0.00000000E+00  0.00000000E+00
  0.00000000E+00  0.00000000E+00  0.00000000E+00
  0.00000000E+00  0.00000000E+00  0.00000000E+00
  0.00000000E+00  0.00000000E+00  0.00000000E+00
  0.00000000E+00  0.00000000E+00  0.00000000E+00
  0.00000000E+00  0.00000000E+00  0.00000000E+00
  0.00000000E+00  0.00000000E+00  0.00000000E+00
  0.00000000E+00  0.00000000E+00  0.00000000E+00
  0.00000000E+00  0.00000000E+00  0.00000000E+00
  0.00000000E+00  0.00000000E+00  0.00000000E+00
  0.00000000E+00  0.00000000E+00  0.00000000E+00
  0.00000000E+00  0.00000000E+00  0.00000000E+00
  0.00000000E+00  0.00000000E+00  0.00000000E+00
  0.00000000E+00  0.00000000E+00  0.00000000E+00
  0.00000000E+00  0.00000000E+00  0.00000000E+00
  0.00000000E+00  0.00000000E+00  0.00000000E+00
  0.00000000E+00  0.00000000E+00  0.00000000E+00
  0.00000000E+00  0.00000000E+00  0.00000000E+00
  0.00000000E+00  0.00000000E+00  0.00000000E+00
  0.00000000E+00  0.00000000E+00  0.00000000E+00
  0.00000000E+00  0.00000000E+00  0.00000000E+00
  0.00000000E+00  0.00000000E+00  0.00000000E+00
  0.00000000E+00  0.00000000E+00  0.00000000E+00
  0.00000000E+00  0.00000000E+00  0.00000000E+00
  0.00000000E+00  0.00000000E+00  0.00000000E+00
  0.00000000E+00  0.00000000E+00  0.00000000E+00
  0.00000000E+00  0.00000000E+00  0.00000000E+00
  0.00000000E+00  0.00000000E+00  0.00000000E+00
  0.00000000E+00  0.00000000E+00  0.00000000E+00
  0.00000000E+00  0.00000000E+00  0.00000000E+00
  0.00000000E+00  0.00000000E+00  0.00000000E+00
  0.00000000E+00  0.00000000E+00  0.00000000E+00
  0.00000000E+00  0.00000000E+00  0.00000000E+00
  0.00000000E+00  0.00000000E+00  0.00000000E+00
  0.00000000E+00  0.00000000E+00  0.00000000E+00
  0.00000000E+00  0.00000000E+00  0.00000000E+00
  0.00000000E+00  0.00000000E+00  0.00000000E+00
  0.00000000E+00  0.00000000E+00  0.00000000E+00
  0.00000000E+00  0.00000000E+00  0.00000000E+00
  0.00000000E+00  0.00000000E+00  0.00000000E+00
  0.00000000E+00  0.00000000E+00  0.00000000E+00
  0.00000000E+00  0.00000000E+00  0.00000000E+00
  0.00000000E+00  0.00000000E+00  0.00000000E+00
  0.00000000E+00  0.00000000E+00  0.00000000E+00
  0.00000000E+00  0.00000000E+00  0.00000000E+00
  0.00000000E+00  0.00000000E+00  0.00000000E+00
  0.00000000E+00  0.00000000E+00  0.00000000E+00
  0.00000000E+00  0.00000000E+00  0.00000000E+00
  0.00000000E+00  0.00000000E+00  0.00000000E+00
  0.00000000E+00  0.00000000E+00  0.00000000E+00
  0.00000000E+00  0.00000000E+00  0.00000000E+00
  0.00000000E+00  0.00000000E+00  0.00000000E+00
  0.00000000E+00  0.00000000E+00  0.00000000E+00
  0.00000000E+00  0.00000000E+00  0.00000000E+00
  0.00000000E+00  0.00000000E+00  0.00000000E+00
  0.00000000E+00  0.00000000E+00  0.00000000E+00
  0.00000000E+00  0.00000000E+00  0.00000000E+00
  0.00000000E+00  0.00000000E+00  0.00000000E+00
  0.00000000E+00  0.00000000E+00  0.00000000E+00
  0.00000000E+00  0.00000000E+00  0.00000000E+00
  0.00000000E+00  0.00000000E+00  0.00000000E+00
  0.00000000E+00  0.00000000E+00  0.00000000E+00
  0.00000000E+00  0.00000000E+00  0.00000000E+00
  0.00000000E+00  0.00000000E+00  0.00000000E+00
  0.00000000E+00  0.00000000E+00  0.00000000E+00
  0.00000000E+00  0.00000000E+00  0.00000000E+00
  0.00000000E+00  0.00000000E+00  0.00000000E+00
  0.00000000E+00  0.00000000E+00  0.00000000E+00
  0.00000000E+00  0.00000000E+00  0.00000000E+00
  0.00000000E+00  0.00000000E+00  0.00000000E+00
  0.00000000E+00  0.00000000E+00  0.00000000E+00
  0.00000000E+00  0.00000000E+00  0.00000000E+00
  0.00000000E+00  0.00000000E+00  0.00000000E+00
  0.00000000E+00  0.00000000E+00  0.00000000E+00
  0.00000000E+00  0.00000000E+00  0.00000000E+00
  0.00000000E+00  0.00000000E+00  0.00000000E+00
  0.00000000E+00  0.00000000E+00  0.00000000E+00
  0.00000000E+00  0.00000000E+00  0.00000000E+00
  0.00000000E+00  0.00000000E+00  0.00000000E+00
  0.00000000E+00  0.00000000E+00  0.00000000E+00
  0.00000000E+00  0.00000000E+00  0.00000000E+00
  0.00000000E+00  0.00000000E+00  0.00000000E+00
  0.00000000E+00  0.00000000E+00  0.00000000E+00
  0.00000000E+00  0.00000000E+00  0.00000000E+00
  0.00000000E+00  0.00000000E+00  0.00000000E+00
  0.00000000E+00  0.00000000E+00  0.00000000E+00
  0.00000000E+00  0.00000000E+00  0.00000000E+00
  0.00000000E+00  0.00000000E+00  0.00000000E+00
  0.00000000E+00  0.00000000E+00  0.00000000E+00
  0.00000000E+00  0.00000000E+00  0.00000000E+00
  0.00000000E+00  0.00000000E+00  0.00000000E+00
  0.00000000E+00  0.00000000E+00  0.00000000E+00
  0.00000000E+00  0.00000000E+00  0.00000000E+00
  0.00000000E+00  0.00000000E+00  0.00000000E+00
  0.00000000E+00  0.00000000E+00  0.00000000E+00
  0.00000000E+00  0.00000000E+00  0.00000000E+00
  0.00000000E+00  0.00000000E+00  0.00000000E+00
  0.00000000E+00  0.00000000E+00  0.00000000E+00
  0.00000000E+00  0.00000000E+00  0.00000000E+00
  0.00000000E+00  0.00000000E+00  0.00000000E+00
  0.00000000E+00  0.00000000E+00  0.00000000E+00
  0.00000000E+00  0.00000000E+00  0.00000000E+00
  0.00000000E+00  0.00000000E+00  0.00000000E+00
  0.00000000E+00  0.00000000E+00  0.00000000E+00
  0.00000000E+00  0.00000000E+00  0.00000000E+00
  0.00000000E+00  0.00000000E+00  0.00000000E+00
  0.00000000E+00  0.00000000E+00  0.00000000E+00
  0.00000000E+00  0.00000000E+00  0.00000000E+00
  0.00000000E+00  0.00000000E+00  0.00000000E+00
  0.00000000E+00  0.00000000E+00  0.00000000E+00
  0.00000000E+00  0.00000000E+00  0.00000000E+00
  0.00000000E+00  0.00000000E+00  0.00000000E+00
  0.00000000E+00  0.00000000E+00  0.00000000E+00
  0.00000000E+00  0.00000000E+00  0.00000000E+00
  0.00000000E+00  0.00000000E+00  0.00000000E+00
  0.00000000E+00  0.00000000E+00  0.00000000E+00
  0.00000000E+00  0.00000000E+00  0.00000000E+00
  0.00000000E+00  0.00000000E+00  0.00000000E+00
  0.00000000E+00  0.00000000E+00  0.00000000E+00
  0.00000000E+00  0.00000000E+00  0.00000000E+00
  0.00000000E+00  0.00000000E+00  0.00000000E+00
  0.00000000E+00  0.00000000E+00  0.00000000E+00
  0.00000000E+00  0.00000000E+00  0.00000000E+00
  0.00000000E+00  0.00000000E+00  0.00000000E+00
  0.00000000E+00  0.00000000E+00  0.00000000E+00
  0.00000000E+00  0.00000000E+00  0.00000000E+00
  0.00000000E+00  0.00000000E+00  0.00000000E+00
  0.00000000E+00  0.00000000E+00  0.00000000E+00
  0.00000000E+00  0.00000000E+00  0.00000000E+00
  0.00000000E+00  0.00000000E+00  0.00000000E+00
  0.00000000E+00  0.00000000E+00  0.00000000E+00
  0.00000000E+00  0.00000000E+00  0.00000000E+00
  0.00000000E+00  0.00000000E+00  0.00000000E+00
  0.00000000E+00  0.00000000E+00  0.00000000E+00
  0.00000000E+00  0.00000000E+00  0.00000000E+00
  0.00000000E+00  0.00000000E+00  0.00000000E+00
  0.00000000E+00  0.00000000E+00  0.00000000E+00
  0.00000000E+00  0.00000000E+00  0.00000000E+00
  0.00000000E+00  0.00000000E+00  0.00000000E+00
  0.00000000E+00  0.00000000E+00  0.00000000E+00
  0.00000000E+00  0.00000000E+00  0.00000000E+00
  0.00000000E+00  0.00000000E+00  0.00000000E+00
  0.00000000E+00  0.00000000E+00  0.00000000E+00
  0.00000000E+00  0.00000000E+00  0.00000000E+00
  0.00000000E+00  0.00000000E+00  0.00000000E+00
  0.00000000E+00  0.00000000E+00  0.00000000E+00
  0.00000000E+00  0.00000000E+00  0.00000000E+00
  0.00000000E+00  0.00000000E+00  0.00000000E+00
  0.00000000E+00  0.00000000E+00  0.00000000E+00
  0.00000000E+00  0.00000000E+00  0.00000000E+00
  0.00000000E+00  0.00000000E+00  0.00000000E+00
  0.00000000E+00  0.00000000E+00  0.00000000E+00
  0.00000000E+00  0.00000000E+00  0.00000000E+00
  0.00000000E+00  0.00000000E+00  0.00000000E+00
  0.00000000E+00  0.00000000E+00  0.00000000E+00
  0.00000000E+00  0.00000000E+00  0.00000000E+00
  0.00000000E+00  0.00000000E+00  0.00000000E+00
  0.00000000E+00  0.00000000E+00  0.00000000E+00
  0.00000000E+00  0.00000000E+00  0.00000000E+00
  0.00000000E+00  0.00000000E+00  0.00000000E+00
  0.00000000E+00  0.00000000E+00  0.00000000E+00
  0.00000000E+00  0.00000000E+00  0.00000000E+00
  0.00000000E+00  0.00000000E+00  0.00000000E+00
  0.00000000E+00  0.00000000E+00  0.00000000E+00
  0.00000000E+00  0.00000000E+00  0.00000000E+00
  0.00000000E+00  0.00000000E+00  0.00000000E+00
  0.00000000E+00  0.00000000E+00  0.00000000E+00
  0.00000000E+00  0.00000000E+00  0.00000000E+00
  0.00000000E+00  0.00000000E+00  0.00000000E+00
  0.00000000E+00  0.00000000E+00  0.00000000E+00
  0.00000000E+00  0.00000000E+00  0.00000000E+00
  0.00000000E+00  0.00000000E+00  0.00000000E+00
  0.00000000E+00  0.00000000E+00  0.00000000E+00
  0.00000000E+00  0.00000000E+00  0.00000000E+00
  0.00000000E+00  0.00000000E+00  0.00000000E+00
  0.00000000E+00  0.00000000E+00  0.00000000E+00
  0.00000000E+00  0.00000000E+00  0.00000000E+00
  0.00000000E+00  0.00000000E+00  0.00000000E+00
  0.00000000E+00  0.00000000E+00  0.00000000E+00
  0.00000000E+00  0.00000000E+00  0.00000000E+00
  0.00000000E+00  0.00000000E+00  0.00000000E+00
  0.00000000E+00  0.00000000E+00  0.00000000E+00
  0.00000000E+00  0.00000000E+00  0.00000000E+00
  0.00000000E+00  0.00000000E+00  0.00000000E+00
  0.00000000E+00  0.00000000E+00  0.00000000E+00
  0.00000000E+00  0.00000000E+00  0.00000000E+00
  0.00000000E+00  0.00000000E+00  0.00000000E+00
  0.00000000E+00  0.00000000E+00  0.00000000E+00
  0.00000000E+00  0.00000000E+00  0.00000000E+00
  0.00000000E+00  0.00000000E+00  0.00000000E+00
  0.00000000E+00  0.00000000E+00  0.00000000E+00
  0.00000000E+00  0.00000000E+00  0.00000000E+00
  0.00000000E+00  0.00000000E+00  0.00000000E+00
  0.00000000E+00  0.00000000E+00  0.00000000E+00
  0.00000000E+00  0.00000000E+00  0.00000000E+00
  0.00000000E+00  0.00000000E+00  0.00000000E+00
  0.00000000E+00  0.00000000E+00  0.00000000E+00
  0.00000000E+00  0.00000000E+00  0.00000000E+00
  0.00000000E+00  0.00000000E+00  0.00000000E+00
  0.00000000E+00  0.00000000E+00  0.00000000E+00
  0.00000000E+00  0.00000000E+00  0.00000000E+00
  0.00000000E+00  0.00000000E+00  0.00000000E+00
  0.00000000E+00  0.00000000E+00  0.00000000E+00
  0.00000000E+00  0.00000000E+00  0.00000000E+00
  0.00000000E+00  0.00000000E+00  0.00000000E+00
  0.00000000E+00  0.00000000E+00  0.00000000E+00
  0.00000000E+00  0.00000000E+00  0.00000000E+00
  0.00000000E+00  0.00000000E+00  0.00000000E+00
  0.00000000E+00  0.00000000E+00  0.00000000E+00
  0.00000000E+00  0.00000000E+00  0.00000000E+00
  0.00000000E+00  0.00000000E+00  0.00000000E+00
  0.00000000E+00  0.00000000E+00  0.00000000E+00
  0.00000000E+00  0.00000000E+00  0.00000000E+00
  0.00000000E+00  0.00000000E+00  0.00000000E+00
