KPOINTS from doped, with reciprocal_density = 40/Å⁻³
0
Gamma
4 4 3
