20.0% N(Distort)=2 ~[0.5,0.5,0.5]       
   1.00000000000000     
    12.5998379999999983    0.0000000000000004    0.0000000000000004
     0.0000000000000004   12.5998379999999983   -0.0000000000000004
    -0.0000000000000004   -0.0000000000000004   12.5998379999999983
   Mg   O 
   109   107
Direct
  0.6657605730220368 -0.0002582035273724  0.0002151408128059
  0.8324394796687703  0.1660619811284497  0.0002882006840489
  0.8323035535585993 -0.0003079729521351  0.1665876601210149
  0.3314551871935176 -0.0001626920909360  0.0001874129334583
  0.4986400472872894  0.1651050761113547 -0.0012717466134787
  0.6661870485261793  0.3324845650763646 -0.0006918757524321
  0.8327386587681478  0.4995772672616890  0.0001385352063894
  0.4984836014502985 -0.0001430979395904  0.1661558142405313
  0.6660137545710366  0.1655528999846077  0.1663995727115551
  0.8323229370767695  0.3325095619015077  0.1666135269007110
  0.6656972528519225  0.0005800103808496  0.3332070451009537
  0.8325246773889955  0.1655132669378337  0.3329052284623774
  0.8327175377082928 -0.0002015471148107  0.5003973342468971
 -0.0013130453535643 -0.0002048941311174  0.0001808598053159
  0.1650365354980368  0.1661769073728138 -0.0001646290825383
  0.3312716681042971  0.3323971994930066 -0.0015926713696851
  0.4984562293512971  0.4995381050482773 -0.0039305154284686
  0.6656681390922754  0.6667421077834436 -0.0006123195125965
  0.8322884516304822  0.8333535457439568  0.0002562200716958
  0.1649314731534401 -0.0002997853552506  0.1664697088778355
  0.3311592930422801  0.1655349401356576  0.1657412338168840
  0.4988265745077139  0.3264871871805167  0.1590644883161142
  0.6661665959673082  0.4993309019398283  0.1633861259546763
  0.8334745134321405  0.6666341081067172  0.1654545983261592
  0.3313558038258161  0.0007247269634880  0.3326971822269764
  0.4984170181412083  0.1649532469736325  0.3320595344228925
  0.6655997819817135  0.3312266296201993  0.3333458479447601
  0.8355848914612892  0.4992937062661407  0.3327732328605174
  0.4984374346110224  0.0039544058923234  0.5004368542548931
  0.6668198364682399  0.1648812666997178  0.5004683332459711
  0.8398822949802652  0.3263897288443748  0.5000736998973587
  0.6661762231630439  0.0006636552970384  0.6675026767983209
  0.8331424009516225  0.1654793476161538  0.6677105301802644
  0.8324215852690199 -0.0003275993014475  0.8339029987802543
 -0.0012845060207999  0.3326013095819464  0.0001554625248437
  0.1640043846095273  0.4997563097085611 -0.0012692458048925
  0.3313435479873092  0.6672886253082035 -0.0006851934797870
  0.4984547519150263  0.8338114206181029  0.0001351035482881
 -0.0014190109789846  0.1660614218920315  0.1664594054726116
  0.1643873287267048  0.3322905382816372  0.1657362942602297
  0.3253776236124514  0.4999177364931167  0.1590554193515511
  0.4982637782913947  0.6672273463245701  0.1633728624676958
  0.6655589906444609  0.8345347614653339  0.1654199787107934
  0.9986681511655465 -0.0002501705249716  0.3331368360793805
  0.1644317730323982  0.1655526804787345  0.3328781453618930
  0.3277433684265373  0.3288643029365145  0.3328861442733021
  0.4795157431496320  0.4806819281137268  0.3015504731161128
  0.6720103882923353  0.6730312366113914  0.3269348192876409
  0.8334650518028893  0.8344964635570812  0.3333230092627636
  0.1639742706791824  0.0012717437924126  0.5002375766424283
  0.3312476480642618  0.1665067089939016  0.5002003481142381
  0.4987607776366965  0.3291645511605617  0.5001538452714336
  0.6974900017158320  0.4805131640739774  0.5193795331960092
  0.8355548665929630  0.6671762659462263  0.5006393190586585
  0.3312590481573749  0.0016228005954631  0.6676129732379857
  0.4986531325604386  0.1664973870759839  0.6676128272333451
  0.6660120103831464  0.3288104292499454  0.6711590996928581
  0.8398649998166301  0.4998933937836891  0.6735055471978348
  0.4986125938403604  0.0012915857731977  0.8348967309377315
  0.6659799224970498  0.1655265504237901  0.8344514627326017
  0.8331408958209116  0.3322688658328868  0.8344732180268604
  0.9986812846276817  0.6668468027449002  0.0002285849642891
  0.1649371005195066  0.8335439384521620  0.0003170796194920
 -0.0012220986746186  0.4995795466392465  0.1661674724050538
  0.1644306426023550  0.6670574020840302  0.1664149072000747
  0.3313905169704081  0.8333741694637011  0.1666404292910885
 -0.0003659303765637  0.3324596654486793  0.3327320184525687
  0.1638517448009436  0.4994852862644568  0.3320805603859183
  0.3301587632671404  0.6666571292603301  0.3333460916171335
  0.4982720340054663  0.8366466542928800  0.3327618550682682
  0.0001643316215864  0.1650425436719428  0.5002390341879354
  0.1654056753470581  0.3323548566579752  0.5002310167497510
  0.3280640392206811  0.4998249494680842  0.5001852608543147
  0.4794026804123779  0.6985425305756139  0.5193299591099881
  0.6661358838436253  0.8365921267291949  0.5006336740217107
 -0.0012932836430218 -0.0001877936426975  0.6673836301619759
  0.1655043196235338  0.1666175128862175  0.6671986823494687
  0.3321630219427857  0.3332507757125081  0.6667525614831229
  0.4987506759321370  0.4998223212822930  0.6708140138920282
  0.6655701681473994  0.6666477443313028  0.6687269711673123
  0.8322856426806681  0.8333269038665958  0.6674507171549097
  0.1650268866172320  0.0001706808814908  0.8338345188386431
  0.3316494139102587  0.1666192065129480  0.8333985324635966
  0.4986611951434473  0.3323734075788849  0.8335036638672237
  0.6668274480059558  0.4994939760437119  0.8350668934775641
  0.8324996442485831  0.6670467754559332  0.8344355899347188
 -0.0013563551148812  0.8333650794324184  0.1666136342844614
 -0.0004558836278924  0.6667261928887442  0.3332340565378191
  0.1644123303098513  0.8335831747434196  0.3329231151757566
  0.0028750191911131  0.4995106742199620  0.5004497570568069
  0.1638265608150947  0.6679108812919227  0.5004724663763711
  0.3253268014306819  0.8410060215109779  0.5000712653901532
  0.0004886353388183  0.3323827674221785  0.6676022340422937
  0.1654037681232350  0.4997731345793514  0.6676260955670561
  0.3277110060676431  0.6671199874749399  0.6711577644103145
  0.4987949377546416  0.8409575429298839  0.6735039964635130
 -0.0009457084142586  0.1661653927213300  0.8338049199746966
  0.1655164923776253  0.3328167220350384  0.8333851242265681
  0.3312590018737185  0.4997939151068201  0.8335111290023226
  0.4983959470024159  0.6679174548618544  0.8350474698066356
  0.6659728480169487  0.8335616578696408  0.8344227229250493
  0.9987418420688000  0.8337782184264915  0.5003955594905137
 -0.0003983567150707  0.6672558990799869  0.6675044411584719
  0.1643695766806701  0.8342676993002801  0.6676996890185691
  0.0001787890058396  0.4997547257710937  0.8348935458923769
  0.1644197557926111  0.6671301579649999  0.8344473977052794
  0.3311487092679589  0.8342729582904942  0.8344914018309005
 -0.0014245011523253  0.8335221570696413  0.8339181573163623
  0.5566851458406523  0.5576894611777466  0.4424074448297702
  0.8317460187040941  0.1664922773452776  0.1671333371496655
 -0.0017570040264563  0.3331057638318556  0.1668732122698307
 -0.0015784934222220  0.1662798998929782  0.3334105599421160
  0.4986702096029891  0.1652385790778297  0.1655772143181894
  0.6644671364203103  0.3340179874124483  0.1673421969238994
  0.8306634264810443  0.4998622028411068  0.1682127411230619
 -0.0016711714011648  0.6663259600598167  0.1671059001120207
  0.6653692754506370  0.1666698431665786  0.3335096640402776
  0.8315866213139553  0.3339594492222759  0.3344322154411296
 -0.0004857396856269  0.4997251409397510  0.3330551738495283
  0.8332973806924875  0.1651494118260779  0.5002145871503032
  0.0010530123088674  0.3321476566552555  0.5000885687305769
 -0.0010001440569637  0.1663988560453986  0.6668553202146347
  0.1652458798024559  0.1663844222895873  0.1666175385482010
  0.3325828988123967  0.3337411479239479  0.1660569827272249
  0.4979401550920258  0.4989995232554716  0.1561459768726130
  0.6644977812429339  0.6655749907468335  0.1669654674476393
  0.8313682778745922  0.8324497420859012  0.1674980313665053
 -0.0015812662317947 -0.0004626263055546  0.1669443527024987
  0.3315980241913805  0.1660529323510245  0.3329663832490257
  0.4975252612520781  0.3300729264167889  0.3306552421941870
  0.6593405696091211  0.5002809084388730  0.3397654245626212
  0.8319717256829129  0.6655533384687826  0.3343844394631053
 -0.0016864068621953  0.8328549051857312  0.3336274580289216
  0.4991226306749678  0.1672295122138602  0.4997133588944935
  0.6682833878494435  0.3299320675097248  0.5013848516438958
  0.8428499551493589  0.4989413440231479  0.5010046881366420
 -0.0004968980182149  0.6668993186795293  0.5002328735762223
  0.6658734034357594  0.1659972640947665  0.6672659309461850
  0.8328124147540686  0.3337147440877681  0.6662475903170348
  0.0010529619535536  0.4998989909446798  0.6678058412467366
  0.8322199991005798  0.1663699644270588  0.8335984933691581
  0.9990142252418757  0.3331287434312943  0.8335686488673804
 -0.0014217229098352  0.1663553461287637  0.0002581860703150
  0.1640950643056656  0.4997701961273792  0.1655790962093731
  0.3328977627487737  0.6655598846201922  0.1673620715513259
  0.4987734773501519  0.8317436393987692  0.1682465866873154
  0.6652435965591279 -0.0005956649805792  0.1670852960039883
  0.1649209936994212  0.3327182411997584  0.3329793053590092
  0.3289052660724839  0.4986149637287066  0.3306707583130171
  0.4992048833679475  0.6602893011413008  0.3397202748340423
  0.6644961922125193  0.8330079243427853  0.3343737813048716
  0.8317655877226522  0.9993934673419119  0.3336168512267124
  0.1656192448956423  0.1667483537708174  0.4999241986063547
  0.3331430200732120  0.3342710860324900  0.4991440781324907
  0.6593617316151775  0.6603115491249870  0.4997188132699469
  0.8306611217736358  0.8317409940171027  0.5000999515369007
 -0.0016413273922533 -0.0005497773726307  0.5001553150942227
  0.3323659220408622  0.1674311396784168  0.6664749631691872
  0.4997328702565990  0.3342773210062532  0.6657106317555654
  0.6682682991306106  0.4985822772817126  0.6699809010241716
  0.8315779083862779  0.6655329096253239  0.6659891126735237
 -0.0017796908371954  0.8331100924548434  0.6668741360385437
  0.4989073958241471  0.1667627982898007  0.8332463198200549
  0.6658813486118051  0.3327048083342252  0.8339630493701545
  0.8333089208342785  0.4997526320224565  0.8347833001839897
 -0.0015869610678026  0.6665843412406232  0.8336898006250071
  0.6654561755986617  0.1662978352600465  0.0004577167602772
  0.8319949999251863  0.3331210022454928  0.0006438569889960
 -0.0016099741671872  0.4998422354769249  0.0004961665637114
  0.1653912150574902  0.8328358245400522  0.1671757687113000
  0.3319693814026093 -0.0006363144107988  0.1668777965781229
  0.1655560972130838  0.6664497965603987  0.3335289892709460
  0.3328954851340646  0.8326506342235076  0.3344447811004516
  0.4986314353964651  0.0006169895273359  0.3330285851347363
  0.1661127286741539  0.5002404070641538  0.4997518701110000
  0.3288317915910061  0.6693528634940589  0.5013848506430816
  0.4978916279486659  0.8438650089617725  0.5009846939839889
  0.6657924882490147  0.0005755793393665  0.5002174438468834
  0.1662782787050737  0.3335010837571699  0.6664993230352390
  0.3331451557604122  0.5008665423038577  0.6657322320123868
  0.4974826488909452  0.6693529618012167  0.6699288893799440
  0.6644143170497859  0.8326545140832283  0.6659660613942016
  0.8319837060538056 -0.0006861782359808  0.6668630472516026
  0.1654644320864280  0.1666256125662456  0.8333724437853196
  0.3323683941109273  0.3335190060175632  0.8325852364404942
  0.4991165713564329  0.5002579134641664  0.8327610150843063
  0.6653289960376131  0.6664359107192156  0.8332807923338970
  0.8317197760465626  0.8328228533080754  0.8334569687074385
 -0.0014229237026553 -0.0002863794792846  0.8336166912548445
  0.3319907260943294  0.1664366013763341 -0.0001547480902112
  0.4987824420634982  0.3322026218857433 -0.0021419295202912
  0.6658073254148783  0.4997578381799255 -0.0006150155722249
  0.8317566589617935  0.6663357668795610  0.0005620078827447
 -0.0015704180810370  0.8330354373903383  0.0004329929961421
  0.1651785527959037 -0.0004674216246232  0.3334184951536334
  0.1640682785342970  0.8344289404529320  0.5002025120803422
  0.3310770149826091  0.0021394587976469  0.5000765133318998
  0.1649025714500145  0.6670249140588265  0.6672645525708748
  0.3325560041822360  0.8339624468127184  0.6662490195844144
  0.4987528615308104  0.0021551851869162  0.6677908416398725
  0.1656423026193515  0.5001029458660338  0.8332342603553891
  0.3315818218764928  0.6670292327994954  0.8339733758086941
  0.4986273177517517  0.8344211259076942  0.8347598347251083
  0.6654286571410279 -0.0004946246991998  0.8336690851363325
  0.1652875055028086  0.3331418215147781 -0.0001750721611923
  0.3310998176981772  0.4999202188841461 -0.0021050586979746
  0.4986156888335231  0.6669354118450422 -0.0006119654833190
  0.6652159119355990  0.8328474541447125  0.0005455215235653
  0.8319161894705931 -0.0004829618784052  0.0004165088124064
  0.1652811746010265  0.0001698201315366  0.6668584606420325
  0.1652511477634251  0.8333761347466900  0.8336066769272579
  0.3319656259377642  0.0001736537487984  0.8335758187662325
  0.1651750834916451  0.6665775704836832  0.0004727076717427
  0.3319671907507607  0.8331338548772964  0.0006587419606739
  0.4986934311580501 -0.0005092815916868  0.0005082056721617
  0.1652030616148618 -0.0002677772076275  0.0002768058420985
 
  0.00000000E+00  0.00000000E+00  0.00000000E+00
  0.00000000E+00  0.00000000E+00  0.00000000E+00
  0.00000000E+00  0.00000000E+00  0.00000000E+00
  0.00000000E+00  0.00000000E+00  0.00000000E+00
  0.00000000E+00  0.00000000E+00  0.00000000E+00
  0.00000000E+00  0.00000000E+00  0.00000000E+00
  0.00000000E+00  0.00000000E+00  0.00000000E+00
  0.00000000E+00  0.00000000E+00  0.00000000E+00
  0.00000000E+00  0.00000000E+00  0.00000000E+00
  0.00000000E+00  0.00000000E+00  0.00000000E+00
  0.00000000E+00  0.00000000E+00  0.00000000E+00
  0.00000000E+00  0.00000000E+00  0.00000000E+00
  0.00000000E+00  0.00000000E+00  0.00000000E+00
  0.00000000E+00  0.00000000E+00  0.00000000E+00
  0.00000000E+00  0.00000000E+00  0.00000000E+00
  0.00000000E+00  0.00000000E+00  0.00000000E+00
  0.00000000E+00  0.00000000E+00  0.00000000E+00
  0.00000000E+00  0.00000000E+00  0.00000000E+00
  0.00000000E+00  0.00000000E+00  0.00000000E+00
  0.00000000E+00  0.00000000E+00  0.00000000E+00
  0.00000000E+00  0.00000000E+00  0.00000000E+00
  0.00000000E+00  0.00000000E+00  0.00000000E+00
  0.00000000E+00  0.00000000E+00  0.00000000E+00
  0.00000000E+00  0.00000000E+00  0.00000000E+00
  0.00000000E+00  0.00000000E+00  0.00000000E+00
  0.00000000E+00  0.00000000E+00  0.00000000E+00
  0.00000000E+00  0.00000000E+00  0.00000000E+00
  0.00000000E+00  0.00000000E+00  0.00000000E+00
  0.00000000E+00  0.00000000E+00  0.00000000E+00
  0.00000000E+00  0.00000000E+00  0.00000000E+00
  0.00000000E+00  0.00000000E+00  0.00000000E+00
  0.00000000E+00  0.00000000E+00  0.00000000E+00
  0.00000000E+00  0.00000000E+00  0.00000000E+00
  0.00000000E+00  0.00000000E+00  0.00000000E+00
  0.00000000E+00  0.00000000E+00  0.00000000E+00
  0.00000000E+00  0.00000000E+00  0.00000000E+00
  0.00000000E+00  0.00000000E+00  0.00000000E+00
  0.00000000E+00  0.00000000E+00  0.00000000E+00
  0.00000000E+00  0.00000000E+00  0.00000000E+00
  0.00000000E+00  0.00000000E+00  0.00000000E+00
  0.00000000E+00  0.00000000E+00  0.00000000E+00
  0.00000000E+00  0.00000000E+00  0.00000000E+00
  0.00000000E+00  0.00000000E+00  0.00000000E+00
  0.00000000E+00  0.00000000E+00  0.00000000E+00
  0.00000000E+00  0.00000000E+00  0.00000000E+00
  0.00000000E+00  0.00000000E+00  0.00000000E+00
  0.00000000E+00  0.00000000E+00  0.00000000E+00
  0.00000000E+00  0.00000000E+00  0.00000000E+00
  0.00000000E+00  0.00000000E+00  0.00000000E+00
  0.00000000E+00  0.00000000E+00  0.00000000E+00
  0.00000000E+00  0.00000000E+00  0.00000000E+00
  0.00000000E+00  0.00000000E+00  0.00000000E+00
  0.00000000E+00  0.00000000E+00  0.00000000E+00
  0.00000000E+00  0.00000000E+00  0.00000000E+00
  0.00000000E+00  0.00000000E+00  0.00000000E+00
  0.00000000E+00  0.00000000E+00  0.00000000E+00
  0.00000000E+00  0.00000000E+00  0.00000000E+00
  0.00000000E+00  0.00000000E+00  0.00000000E+00
  0.00000000E+00  0.00000000E+00  0.00000000E+00
  0.00000000E+00  0.00000000E+00  0.00000000E+00
  0.00000000E+00  0.00000000E+00  0.00000000E+00
  0.00000000E+00  0.00000000E+00  0.00000000E+00
  0.00000000E+00  0.00000000E+00  0.00000000E+00
  0.00000000E+00  0.00000000E+00  0.00000000E+00
  0.00000000E+00  0.00000000E+00  0.00000000E+00
  0.00000000E+00  0.00000000E+00  0.00000000E+00
  0.00000000E+00  0.00000000E+00  0.00000000E+00
  0.00000000E+00  0.00000000E+00  0.00000000E+00
  0.00000000E+00  0.00000000E+00  0.00000000E+00
  0.00000000E+00  0.00000000E+00  0.00000000E+00
  0.00000000E+00  0.00000000E+00  0.00000000E+00
  0.00000000E+00  0.00000000E+00  0.00000000E+00
  0.00000000E+00  0.00000000E+00  0.00000000E+00
  0.00000000E+00  0.00000000E+00  0.00000000E+00
  0.00000000E+00  0.00000000E+00  0.00000000E+00
  0.00000000E+00  0.00000000E+00  0.00000000E+00
  0.00000000E+00  0.00000000E+00  0.00000000E+00
  0.00000000E+00  0.00000000E+00  0.00000000E+00
  0.00000000E+00  0.00000000E+00  0.00000000E+00
  0.00000000E+00  0.00000000E+00  0.00000000E+00
  0.00000000E+00  0.00000000E+00  0.00000000E+00
  0.00000000E+00  0.00000000E+00  0.00000000E+00
  0.00000000E+00  0.00000000E+00  0.00000000E+00
  0.00000000E+00  0.00000000E+00  0.00000000E+00
  0.00000000E+00  0.00000000E+00  0.00000000E+00
  0.00000000E+00  0.00000000E+00  0.00000000E+00
  0.00000000E+00  0.00000000E+00  0.00000000E+00
  0.00000000E+00  0.00000000E+00  0.00000000E+00
  0.00000000E+00  0.00000000E+00  0.00000000E+00
  0.00000000E+00  0.00000000E+00  0.00000000E+00
  0.00000000E+00  0.00000000E+00  0.00000000E+00
  0.00000000E+00  0.00000000E+00  0.00000000E+00
  0.00000000E+00  0.00000000E+00  0.00000000E+00
  0.00000000E+00  0.00000000E+00  0.00000000E+00
  0.00000000E+00  0.00000000E+00  0.00000000E+00
  0.00000000E+00  0.00000000E+00  0.00000000E+00
  0.00000000E+00  0.00000000E+00  0.00000000E+00
  0.00000000E+00  0.00000000E+00  0.00000000E+00
  0.00000000E+00  0.00000000E+00  0.00000000E+00
  0.00000000E+00  0.00000000E+00  0.00000000E+00
  0.00000000E+00  0.00000000E+00  0.00000000E+00
  0.00000000E+00  0.00000000E+00  0.00000000E+00
  0.00000000E+00  0.00000000E+00  0.00000000E+00
  0.00000000E+00  0.00000000E+00  0.00000000E+00
  0.00000000E+00  0.00000000E+00  0.00000000E+00
  0.00000000E+00  0.00000000E+00  0.00000000E+00
  0.00000000E+00  0.00000000E+00  0.00000000E+00
  0.00000000E+00  0.00000000E+00  0.00000000E+00
  0.00000000E+00  0.00000000E+00  0.00000000E+00
  0.00000000E+00  0.00000000E+00  0.00000000E+00
  0.00000000E+00  0.00000000E+00  0.00000000E+00
  0.00000000E+00  0.00000000E+00  0.00000000E+00
  0.00000000E+00  0.00000000E+00  0.00000000E+00
  0.00000000E+00  0.00000000E+00  0.00000000E+00
  0.00000000E+00  0.00000000E+00  0.00000000E+00
  0.00000000E+00  0.00000000E+00  0.00000000E+00
  0.00000000E+00  0.00000000E+00  0.00000000E+00
  0.00000000E+00  0.00000000E+00  0.00000000E+00
  0.00000000E+00  0.00000000E+00  0.00000000E+00
  0.00000000E+00  0.00000000E+00  0.00000000E+00
  0.00000000E+00  0.00000000E+00  0.00000000E+00
  0.00000000E+00  0.00000000E+00  0.00000000E+00
  0.00000000E+00  0.00000000E+00  0.00000000E+00
  0.00000000E+00  0.00000000E+00  0.00000000E+00
  0.00000000E+00  0.00000000E+00  0.00000000E+00
  0.00000000E+00  0.00000000E+00  0.00000000E+00
  0.00000000E+00  0.00000000E+00  0.00000000E+00
  0.00000000E+00  0.00000000E+00  0.00000000E+00
  0.00000000E+00  0.00000000E+00  0.00000000E+00
  0.00000000E+00  0.00000000E+00  0.00000000E+00
  0.00000000E+00  0.00000000E+00  0.00000000E+00
  0.00000000E+00  0.00000000E+00  0.00000000E+00
  0.00000000E+00  0.00000000E+00  0.00000000E+00
  0.00000000E+00  0.00000000E+00  0.00000000E+00
  0.00000000E+00  0.00000000E+00  0.00000000E+00
  0.00000000E+00  0.00000000E+00  0.00000000E+00
  0.00000000E+00  0.00000000E+00  0.00000000E+00
  0.00000000E+00  0.00000000E+00  0.00000000E+00
  0.00000000E+00  0.00000000E+00  0.00000000E+00
  0.00000000E+00  0.00000000E+00  0.00000000E+00
  0.00000000E+00  0.00000000E+00  0.00000000E+00
  0.00000000E+00  0.00000000E+00  0.00000000E+00
  0.00000000E+00  0.00000000E+00  0.00000000E+00
  0.00000000E+00  0.00000000E+00  0.00000000E+00
  0.00000000E+00  0.00000000E+00  0.00000000E+00
  0.00000000E+00  0.00000000E+00  0.00000000E+00
  0.00000000E+00  0.00000000E+00  0.00000000E+00
  0.00000000E+00  0.00000000E+00  0.00000000E+00
  0.00000000E+00  0.00000000E+00  0.00000000E+00
  0.00000000E+00  0.00000000E+00  0.00000000E+00
  0.00000000E+00  0.00000000E+00  0.00000000E+00
  0.00000000E+00  0.00000000E+00  0.00000000E+00
  0.00000000E+00  0.00000000E+00  0.00000000E+00
  0.00000000E+00  0.00000000E+00  0.00000000E+00
  0.00000000E+00  0.00000000E+00  0.00000000E+00
  0.00000000E+00  0.00000000E+00  0.00000000E+00
  0.00000000E+00  0.00000000E+00  0.00000000E+00
  0.00000000E+00  0.00000000E+00  0.00000000E+00
  0.00000000E+00  0.00000000E+00  0.00000000E+00
  0.00000000E+00  0.00000000E+00  0.00000000E+00
  0.00000000E+00  0.00000000E+00  0.00000000E+00
  0.00000000E+00  0.00000000E+00  0.00000000E+00
  0.00000000E+00  0.00000000E+00  0.00000000E+00
  0.00000000E+00  0.00000000E+00  0.00000000E+00
  0.00000000E+00  0.00000000E+00  0.00000000E+00
  0.00000000E+00  0.00000000E+00  0.00000000E+00
  0.00000000E+00  0.00000000E+00  0.00000000E+00
  0.00000000E+00  0.00000000E+00  0.00000000E+00
  0.00000000E+00  0.00000000E+00  0.00000000E+00
  0.00000000E+00  0.00000000E+00  0.00000000E+00
  0.00000000E+00  0.00000000E+00  0.00000000E+00
  0.00000000E+00  0.00000000E+00  0.00000000E+00
  0.00000000E+00  0.00000000E+00  0.00000000E+00
  0.00000000E+00  0.00000000E+00  0.00000000E+00
  0.00000000E+00  0.00000000E+00  0.00000000E+00
  0.00000000E+00  0.00000000E+00  0.00000000E+00
  0.00000000E+00  0.00000000E+00  0.00000000E+00
  0.00000000E+00  0.00000000E+00  0.00000000E+00
  0.00000000E+00  0.00000000E+00  0.00000000E+00
  0.00000000E+00  0.00000000E+00  0.00000000E+00
  0.00000000E+00  0.00000000E+00  0.00000000E+00
  0.00000000E+00  0.00000000E+00  0.00000000E+00
  0.00000000E+00  0.00000000E+00  0.00000000E+00
  0.00000000E+00  0.00000000E+00  0.00000000E+00
  0.00000000E+00  0.00000000E+00  0.00000000E+00
  0.00000000E+00  0.00000000E+00  0.00000000E+00
  0.00000000E+00  0.00000000E+00  0.00000000E+00
  0.00000000E+00  0.00000000E+00  0.00000000E+00
  0.00000000E+00  0.00000000E+00  0.00000000E+00
  0.00000000E+00  0.00000000E+00  0.00000000E+00
  0.00000000E+00  0.00000000E+00  0.00000000E+00
  0.00000000E+00  0.00000000E+00  0.00000000E+00
  0.00000000E+00  0.00000000E+00  0.00000000E+00
  0.00000000E+00  0.00000000E+00  0.00000000E+00
  0.00000000E+00  0.00000000E+00  0.00000000E+00
  0.00000000E+00  0.00000000E+00  0.00000000E+00
  0.00000000E+00  0.00000000E+00  0.00000000E+00
  0.00000000E+00  0.00000000E+00  0.00000000E+00
  0.00000000E+00  0.00000000E+00  0.00000000E+00
  0.00000000E+00  0.00000000E+00  0.00000000E+00
  0.00000000E+00  0.00000000E+00  0.00000000E+00
  0.00000000E+00  0.00000000E+00  0.00000000E+00
  0.00000000E+00  0.00000000E+00  0.00000000E+00
  0.00000000E+00  0.00000000E+00  0.00000000E+00
  0.00000000E+00  0.00000000E+00  0.00000000E+00
  0.00000000E+00  0.00000000E+00  0.00000000E+00
  0.00000000E+00  0.00000000E+00  0.00000000E+00
  0.00000000E+00  0.00000000E+00  0.00000000E+00
  0.00000000E+00  0.00000000E+00  0.00000000E+00
  0.00000000E+00  0.00000000E+00  0.00000000E+00
  0.00000000E+00  0.00000000E+00  0.00000000E+00
  0.00000000E+00  0.00000000E+00  0.00000000E+00
  0.00000000E+00  0.00000000E+00  0.00000000E+00
  0.00000000E+00  0.00000000E+00  0.00000000E+00
  0.00000000E+00  0.00000000E+00  0.00000000E+00
  0.00000000E+00  0.00000000E+00  0.00000000E+00
