20.0% N(Distort)=2 ~[0.5,0.5,0.5]
1.0
  12.5998379999999983    0.0000000000000004    0.0000000000000004
   0.0000000000000004   12.5998379999999983   -0.0000000000000004
  -0.0000000000000004   -0.0000000000000004   12.5998379999999983
Mg O
109 107
direct
   0.6719359826099596    0.0164400566803896   -0.0025562813959436 Mg
   0.8333333333333333    0.1666666666666667    1.0000000000000000 Mg
   0.8356993213461827    1.0223522002184962    0.1641323011046227 Mg
   0.3224763702131981    0.0044599364366762   -0.0124259056236310 Mg
   0.5248438668437096    0.1340167727506748    0.0208845527956899 Mg
   0.6714935292382217    0.3457211772833228   -0.0209526067947342 Mg
   0.8290737230186719    0.5128489518682409    0.9753351773185092 Mg
   0.4916111432182905   -0.0188535355206976    0.1598155402881129 Mg
   0.6678441349996687    0.1610208860998654    0.1570750534364992 Mg
   0.8398290960954995    0.3139069218633367    0.1559451496808327 Mg
   0.6529922647312478   -0.0208375328663862    0.3414634871060681 Mg
   0.8272948733419782    0.1623771361292621    0.3409283729394916 Mg
   0.8546718546691711    0.9895610099407481    0.4840357737385074 Mg
   0.0071664193739197   -0.0062217652039983    0.0222514026378674 Mg
   0.1778419933210541    0.1731984125676223   -0.0018258863128983 Mg
   0.3509020234804865    0.3164886540857361   -0.0051952251219566 Mg
   0.4851367154230440    0.5060807663205097    0.0227075764064646 Mg
   0.6388666746502948    0.6688133188066776   -0.0235047665460147 Mg
   0.8493054184143907    0.8404198254721323    0.0156185315519550 Mg
   0.1550622663609379    0.0070621578576809    0.1755893241350447 Mg
   0.3229070799387105    0.1602697860082556    0.1469752626387115 Mg
   0.5225367342199747    0.3289489778683289    0.1443390316083256 Mg
   0.6928865113157349    0.5170532082026663    0.1526261531455414 Mg
   0.8301874750611035    0.6951513227379724    0.1764429135622143 Mg
   0.3364767959771385    0.0093144088968675    0.3294769297912727 Mg
   0.4982640672124659    0.1773792761319273    0.3536609140464707 Mg
   0.6650502985036897    0.3288541343019153    0.3359702075269573 Mg
   0.8403584470131449    0.4970331796182972    0.3486701612025650 Mg
   0.4947910800683926    0.0202519946282909    0.5286613036804330 Mg
   0.6350549474016074    0.1945445291202825    0.4694840588432075 Mg
   0.8039052536122827    0.3409312265230112    0.5060087239430703 Mg
   0.6495954989755989    0.0313671915667326    0.6627357747048523 Mg
   0.8412665041403294    0.1675661161166256    0.6679816929140813 Mg
   0.8556559383724570   -0.0156476931365099    0.8604090373067872 Mg
   0.0029938664623096    0.3383859351690671    1.0092066456856925 Mg
   0.1531748754433282    0.5187058663358589    0.0013777530894424 Mg
   0.3304576043269056    0.6690903824589511    0.9940325834837199 Mg
   0.4982551042506618    0.8637451307505882    0.0043300453940999 Mg
   0.0122493078486916    0.1479698802210372    0.1482212640325313 Mg
   0.1453462941227790    0.3428787095132391    0.1674486229667467 Mg
   0.3355378905514359    0.5136361513696753    0.1822473221692382 Mg
   0.5084863530658968    0.6534607462110884    0.1805226046592464 Mg
   0.6444368749295563    0.8256332399399043    0.1574115039622817 Mg
   0.9852595923746527    0.9858635686290004    0.3031321841618090 Mg
   0.1557642678601986    0.1926233385400799    0.3512106699779224 Mg
   0.3299334140777126    0.3436406995678401    0.3513220827067979 Mg
   0.5073710727912546    0.5148892485098548    0.3027538845922461 Mg
   0.6640517802269218    0.6551041137159542    0.3429187213905230 Mg
   0.8275196442052966    0.8116986720134098    0.3112114549547303 Mg
   0.1873051240524218   -0.0207912974986890    0.5138870848698449 Mg
   0.3187803611404224    0.1677015267809475    0.5105672460270253 Mg
   0.4915841515156322    0.3423713913444155    0.5131580216688417 Mg
   0.6804968312738112    0.4911387728849989    0.4990654395663951 Mg
   0.8491959306435189    0.6779586548631957    0.5143284863007613 Mg
   0.3558911484737861    0.9929612042916937    0.6662025174469475 Mg
   0.4943800210115940    0.1396443290162341    0.6910929210956502 Mg
   0.6878531672894082    0.3434572124865466    0.6669127934962041 Mg
   0.8415462821564557    0.4924107009274415    0.6871151722402971 Mg
   0.5142899553101261    0.0074436355760234    0.8218805545252473 Mg
   0.6835738670154642    0.1761676375825922    0.8324298192118412 Mg
   0.8211184425029763    0.3294420106629770    0.8310580118317316 Mg
  -0.0190910049911650    0.6687165128435347    0.9966733256184015 Mg
   0.1879167979952185    0.8322336024504293    0.0179687097772610 Mg
   0.0037253095308785    0.5128442468086871    0.1534976358573737 Mg
   0.1413421382158672    0.6733950712113549    0.1471489917439623 Mg
   0.3461467734990463    0.8206878467873783    0.1734270274519635 Mg
   0.0171559992319744    0.3517904595174755    0.3127959427266799 Mg
   0.1599800936360308    0.5206894307782500    0.3122977811497111 Mg
   0.3381536400635461    0.6926962812556617    0.3094016590196913 Mg
   0.4920589681986380    0.8107915547718177    0.3499148007816126 Mg
  -0.0062258778788565    0.1491690791713579    0.4659151865878115 Mg
   0.1597101493546612    0.3344042570373666    0.5035130336876458 Mg
   0.3211007157736483    0.4945958835560280    0.4820308894907762 Mg
   0.4847622882135796    0.6836299448861789    0.4832066785020759 Mg
   0.6498030150258967    0.8176691003541597    0.4695680748622315 Mg
   1.0144489880782976    0.9909548866382435    0.6656861552594113 Mg
   0.1726280975973122    0.1847019452862206    0.6563937201689349 Mg
   0.3175851419049846    0.3118262841305485    0.6716464185713567 Mg
   0.4947835586282679    0.5063525044003142    0.6875864245118659 Mg
   0.6756820826393473    0.6810148857935714    0.6544668684653544 Mg
   0.8333294359259651    0.8578021425309007    0.6656960461724670 Mg
   0.1536413864377791   -0.0054846494324468    0.8116160314000408 Mg
   0.3420705696662497    0.1739541730106836    0.8260276215946644 Mg
   0.4942534716575315    0.3164264071561013    0.8372221089337111 Mg
   0.6589553727455696    0.5142981029477193    0.8391733738056192 Mg
   0.8159382453992556    0.6527473113422474    0.8133978881143418 Mg
   0.9827670052112131    0.8168964122617005    0.1624043599710697 Mg
   0.0209517241591519    0.6676321482511639    0.3392859042369051 Mg
   0.1789061883385334    0.8276422806114166    0.3565590345316785 Mg
  -0.0026338527052394    0.4893633971972723    0.5038619019830359 Mg
   0.1498749796738241    0.6734847638704593    0.4893567190515158 Mg
   0.3518985831527883    0.8323257009904381    0.5223554695880600 Mg
   1.0082059670304144    0.3411700541929317    0.6748588050551041 Mg
   0.1597857999583834    0.4939187332090722    0.6730182044526144 Mg
   0.3299844533554716    0.6690062288230211    0.6644284955406808 Mg
   0.5033615250035079    0.8715045863432945    0.6675905593193288 Mg
  -0.0131043144603612    0.1594393360736354    0.8227247004442555 Mg
   0.1626951615638064    0.3335593670008877    0.8510413734256564 Mg
   0.3239633127769443    0.5017759113128210    0.8206181179184409 Mg
   0.5025945841084529    0.6571383687449107    0.8294516425769074 Mg
   0.6534656908674678    0.8197472006964833    0.8547423364658200 Mg
   0.9954426457024399    0.8131868785357451    0.5010002069405837 Mg
  -0.0166142702709274    0.6534439667995282    0.6511465953578313 Mg
   0.1811670961590998    0.8319216301574651    0.6784768768634255 Mg
   0.0130857093397868    0.5118590456254432    0.8158144320146481 Mg
   0.1618223584128245    0.6336157981519885    0.8249805595411733 Mg
   0.3019210500391031    0.8271319573754511    0.8033572386526637 Mg
  -0.0112946872536598    0.8430405958270883    0.8265078263944146 Mg
   0.4959722163197654    0.4969342237780070    0.4980695445178416 Mg
   0.8333333333333333    0.1666666666666667    0.2000025714616331 O
  -0.0109510861285656    0.3164595259773016    0.1747803156815999 O
   0.0116234431598262    0.1497967961357131    0.3283134708624548 O
   0.5354384415918995    0.1481896678431732    0.1818076413952229 O
   0.6592773830029548    0.3232704711766419    0.1658791736230838 O
   0.8355310366933431    0.4777611580758398    0.1869276078460794 O
   0.0147873234606556    0.6556661429060625    0.1834781082171479 O
   0.6557242322403711    0.1432775628940399    0.3353912129092642 O
   0.8213857600970544    0.3131775467536001    0.3413789475838294 O
   0.0027738491999697    0.5192093031889160    0.3266530429113903 O
   0.8267970030372280    0.1481374719276898    0.4963754623461928 O
  -0.0087472425621514    0.3431947962050853    0.5064113517029344 O
   0.0098002257070179    0.1588069568530020    0.6590213545373799 O
   0.1763548117287371    0.1718863851997377    0.1859386284724145 O
   0.3142713105092554    0.3251116472341768    0.1628023981199497 O
   0.4802140798889879    0.5040828021791343    0.1577809854888249 O
   0.6935593787579883    0.6586739754049410    0.1706134593833486 O
   0.8453562247551298    0.8394323250228032    0.1528532001117642 O
  -0.0049456187542569    0.0005011423718553    0.1671929303013434 O
   0.3189818778613727    0.1626659074329133    0.3169817448554622 O
   0.5079870072260593    0.3283677234340064    0.3193888110721427 O
   0.6796426541216199    0.5159784866673734    0.3364881143045039 O
   0.8317275939900424    0.6611885349046499    0.3242972149264693 O
   0.0048663278057101    0.8532060852465916    0.3383861273479154 O
   0.4618135973380825    0.1927379671058947    0.4817405994220960 O
   0.6604948118399909    0.3499916675537255    0.4903489400637540 O
   0.8499928886782567    0.4654057887959633    0.5118363391115878 O
  -0.0077793358730480    0.6531882476187260    0.4837665771978473 O
   0.6439001093452265    0.1665839429823845    0.6617720481155759 O
   0.8271623911641369    0.3148030700409564    0.6642713606517938 O
   0.0121694696994809    0.4910431261813156    0.6681192304080215 O
   0.8333333333333333    0.1666666666666667    0.7999974285383670 O
  -0.0031334834969597    0.3489226550861576    0.8051341409083659 O
   0.0240779289054968    0.1482899220979715   -0.0209766801994862 O
   0.1768054344621561    0.4943603985981279    0.1804126585365146 O
   0.3230068066070695    0.6766787174954807    0.1520847023818490 O
   0.4826892816669994    0.8241063981851118    0.2040240645915360 O
   0.6818645993667989    0.0013093780419517    0.1738447883198052 O
   0.1710945606936191    0.3226201863249120    0.3363864428544771 O
   0.3273542509801251    0.5241319671711413    0.3447356386423728 O
   0.5108596874426503    0.6491394661505667    0.3324553143339878 O
   0.6500085573910355    0.8254499170196249    0.3139219665226690 O
   0.8093116210917148   -0.0014575068677928    0.3291121476396265 O
   0.1765121065549204    0.1733162972383660    0.4972601773152560 O
   0.3205174913657062    0.3250823801896178    0.5136746779449542 O
   0.6474488152973072    0.6346915789660240    0.5090979760105403 O
   0.8244034175015384    0.8081564522613662    0.4887902391944405 O
   0.0052670777632711    0.0099261488938842    0.4688833745796764 O
   0.3157816678149484    0.1560157902452523    0.6503828276261966 O
   0.4948568128932305    0.3359024617287762    0.6568307417907213 O
   0.6791905530617813    0.4916867628484753    0.6703516131010163 O
   0.8365651437146200    0.6789205433925659    0.6705444214674880 O
   0.0029645602151755    0.8418961407448206    0.6710736386983079 O
   0.5173919777699045    0.1889244572923743    0.8327466027730679 O
   0.6705697523596156    0.3429042352860112    0.8393640785308220 O
   0.8149992201003704    0.4949871713609721    0.8386296847494107 O
   0.0192440378040423    0.6690552306438471    0.8523598662872999 O
   0.6457536546169047    0.1674194148614151   -0.0054763896592791 O
   0.8332615022731910    0.3307389954706277    0.0045355898898801 O
   0.0015156879805814    0.4877267983456992    0.0030214290712175 O
   0.1714133771721279    0.8437881971643446    0.1565623595462839 O
   0.3280973205071457   -0.0116467843252973    0.1997717352993726 O
   0.1839179393712632    0.6712199865004472    0.3416230520548742 O
   0.3522643961225730    0.8334522598137617    0.3404044248299011 O
   0.4872191469403880    0.0013372629080690    0.3849533747261482 O
   0.1471772161328791    0.5065577598734908    0.5052440866973057 O
   0.3214392670707606    0.6699753278358150    0.5066002373180125 O
   0.5087175674737819    0.8369355472041529    0.5084364412091331 O
   0.6824756732776710    0.0079634925022225    0.5093715768114985 O
   0.1640640071439974    0.3376536170938209    0.6650108777452844 O
   0.3008302375730921    0.5152265635632906    0.6820381101216730 O
   0.4737433520646991    0.6654629183214975    0.6805987344350379 O
   0.7015836957490764    0.8547662997625524    0.6459868505695040 O
   0.8248231564244365    0.0120255198673339    0.6697106869519753 O
   0.1779237994248566    0.1848271943073994    0.8464951643709570 O
   0.3397132137758534    0.3391935465580946    0.8412969394027017 O
   0.4999210995360567    0.4918877840000236    0.8193479474184031 O
   0.6793544962457544    0.6776752642935273    0.8470922333747639 O
   0.8288271589732750    0.8298079923811303    0.8393022668550703 O
  -0.0001513757592394   -0.0273768590092407    0.8162636531821738 O
   0.3288178611573647    0.1684975909181972    0.0069707684222172 O
   0.4939509387463942    0.3523226147503056   -0.0149499505820847 O
   0.6471620609403490    0.4865374346304736    0.0093606785615396 O
   0.8175950249667917    0.6714511141372075   -0.0121450505484436 O
   0.0048460458668377    0.8412939386132978    0.0145593004740236 O
   0.1601218862248394   -0.0176637066600474    0.3191588111287105 O
   0.1565022023870995    0.8379008237440032    0.4964424818080121 O
   0.3350764319384253    0.0161372012389305    0.5117907363820599 O
   0.1441899462777749    0.6622590590896955    0.6609685272859642 O
   0.3611143790231729    0.8223633258924390    0.6726587860516402 O
   0.5021411693814759    0.0021289310046121    0.6865136343129981 O
   0.1727433101851245    0.4830891451724795    0.8400076119370394 O
   0.3358980386360066    0.6552867042215800    0.8519751461387006 O
   0.4966947526474901    0.8109720154144174    0.8245852734747359 O
   0.6589565965219547    0.0225596791037954    0.8197621594043376 O
   0.1782838254458849    0.3226142709051953    0.0463082086378943 O
   0.3423520676721214    0.5151203407271693    0.0092054547290128 O
   0.4972037545606151    0.6642984561720977    0.0159662326543710 O
   0.6516761188513557    0.8248104018453727   -0.0044274052897964 O
   0.8529154459991697   -0.0092668916831328    0.0076084841310087 O
   0.1626614499009674    0.0587949958904450    0.6451012911361950 O
   0.1559582758541213    0.8704382245752839    0.8320496130397095 O
   0.3391509768828013   -0.0221423696085073    0.8416991231144586 O
   0.1693052414589969    0.6876347892346504   -0.0153929387552948 O
   0.3110077910015177    0.8195017286871461   -0.0097960091518821 O
   0.5067415741904935    0.0047504464244103   -0.0218257360015074 O
   0.1579744714226378    0.0076959426768944    0.0007357914790028 O
