pymatgen with grid density = 1089 / number of atoms
0
Gamma
9 9 5
