Rattled N(Distort)=0 ~[0.5,0.5,0.5]
1.0
  12.5998379999999983    0.0000000000000004    0.0000000000000004
   0.0000000000000004   12.5998379999999983   -0.0000000000000004
  -0.0000000000000004   -0.0000000000000004   12.5998379999999983
Mg O
109 107
direct
   0.6803529128850566    0.0147007305125418    0.0011917340143906 Mg
   0.8570203935048617    0.1629380061985432    1.0087441215341524 Mg
   0.8320686539226143    0.9983189195298863    0.1475767511034398 Mg
   0.3090874113846597    0.0174931957125501   -0.0159390055707558 Mg
   0.4900178741460310    0.1619660105124004   -0.0159071405890571 Mg
   0.6715770029221707    0.3495851785315652   -0.0235340322476181 Mg
   0.8160316229092313    0.5224432802171479    1.0216416212017232 Mg
   0.4696110965929247    0.0199742743851016    0.1568481423086426 Mg
   0.6574408902264968    0.1811103861779278    0.1448295911097843 Mg
   0.8288916496048766    0.3207197092083940    0.1823310123926571 Mg
   0.6671741163021383    0.0279652351537323    0.3189730404115887 Mg
   0.8476861481178390    0.1703702411599387    0.3178755672044445 Mg
   0.8395127817358775    1.0023087466326766    0.5344413913543795 Mg
   0.0043260487516243    0.0158499929932664    0.0080215114070134 Mg
   0.1504773756185466    0.1544792579780447    0.0183998769445163 Mg
   0.3225471432788479    0.3380173444711704   -0.0103251971934511 Mg
   0.5190520698318141    0.4932727245020671   -0.0042065909390286 Mg
   0.6773932336349050    0.6818080308215910   -0.0209202115580427 Mg
   0.8458102803918578    0.8405362663494733   -0.0108930177449143 Mg
   0.1438360824224007    0.0264761367718365    0.1810550367882222 Mg
   0.3570900606414857    0.1720529952318542    0.1595897286557752 Mg
   0.5085173953187961    0.3468345470079914    0.1546112453694434 Mg
   0.6978054436933827    0.5146229293889311    0.1513446300737111 Mg
   0.8379842391434534    0.6513221327294427    0.1430375277375548 Mg
   0.3663010203446443   -0.0252170898119080    0.3298955645173055 Mg
   0.5223427813542808    0.1838313812975796    0.3250786287081470 Mg
   0.6818999548961708    0.3275696155304124    0.3632219921977239 Mg
   0.8472757128338143    0.5080912715313467    0.3406991159806956 Mg
   0.4957330528529976    0.0020284872929521    0.4945344951629062 Mg
   0.6612198217162634    0.1891704253768227    0.5010557406995598 Mg
   0.8387738892725696    0.3401866086878842    0.5394869786627049 Mg
   0.6560998936353211   -0.0058496406400420    0.6425032143280879 Mg
   0.8390738709547562    0.1645674779174292    0.6623340693108040 Mg
   0.8362863737179206   -0.0127096329154899    0.8082150560962571 Mg
  -0.0016373042413801    0.3491932287036290    1.0046795558842492 Mg
   0.1564283591363007    0.5168890509339967    0.0152251875868397 Mg
   0.3236787791573080    0.6607204094278167    1.0233831989746933 Mg
   0.5018702181056230    0.8260988288992448   -0.0193795902544474 Mg
   0.0020701428626515    0.1814205703414596    0.1832404252044945 Mg
   0.1572285967808788    0.3302884942800556    0.1559583437420241 Mg
   0.3617429684022234    0.4799014722968597    0.1373216867558985 Mg
   0.4853642303136346    0.6744722354216105    0.1561605230755264 Mg
   0.6541368065376807    0.8356969625278138    0.1984894975405021 Mg
   1.0002198947161294    0.9903537756471188    0.3057548284323464 Mg
   0.1937948044726195    0.1517555153724782    0.3214764525408912 Mg
   0.3452174439022863    0.3362121115039526    0.3275242676197476 Mg
   0.4949100538413794    0.4913163060815885    0.3567684796295408 Mg
   0.6516873116364944    0.6854192684266893    0.3007115638184601 Mg
   0.8379685410923566    0.8487097256578722    0.3460608982089652 Mg
   0.1838913615218685    0.0129839989649744    0.4756720434336384 Mg
   0.3347359089998185    0.1777682138603726    0.5067542865418292 Mg
   0.5261921927111416    0.3356425106232127    0.4736597996937475 Mg
   0.6863419531652918    0.4946559832769724    0.5338099266101417 Mg
   0.8515373279721661    0.6661372557310160    0.4827870610368865 Mg
   0.3257176802578706    1.0012829170538455    0.6709632490487751 Mg
   0.4951196011901678    0.1460857919765848    0.6598867611658025 Mg
   0.6800702988452977    0.3333368615522704    0.6617489627971401 Mg
   0.8412714728321289    0.5013782389752479    0.6624767296278891 Mg
   0.5112028092137568    0.0176093474291010    0.8420322061687086 Mg
   0.6705776150700994    0.1757429649668137    0.8267757165702324 Mg
   0.8479244288207344    0.3153093114100098    0.8363304234464363 Mg
   0.0059130709884805    0.6722105456101808    1.0245807853844282 Mg
   0.1705149251827262    0.8505051575699171    0.0006113023788912 Mg
   0.0072404741461068    0.5296298382366555    0.1559590068887244 Mg
   0.1414226562489775    0.6798476400615626    0.1618078463636591 Mg
   0.3355458668706061    0.8093762674206395    0.1710269630296135 Mg
  -0.0017248560542062    0.3422618491724769    0.3460173460903278 Mg
   0.1624957030531211    0.4895824768584764    0.3534825842983245 Mg
   0.3555360416939333    0.6704566461048397    0.3561737025955667 Mg
   0.4952118421556492    0.8499620442366230    0.3248518988514386 Mg
  -0.0202422432349728    0.1832496943752469    0.5115771756445733 Mg
   0.1968904711767600    0.3371361266929535    0.4888374461466439 Mg
   0.3320572679821474    0.4944960566710097    0.4957621778446461 Mg
   0.5184822491336369    0.6951079121651020    0.4716934426895699 Mg
   0.6735219329577489    0.8246551381172791    0.4887791597053758 Mg
   1.0124676806856729    0.9864847996285695    0.6682462529104827 Mg
   0.1589022379128858    0.1486413178875227    0.6675907360140066 Mg
   0.3241870337724638    0.3222891521867629    0.6601112121464338 Mg
   0.5326634753627409    0.4709033356548424    0.6767936750616184 Mg
   0.6575826485782431    0.6608755532227735    0.6583393479315424 Mg
   0.8335479994779658    0.8721080873449147    0.6967648360600712 Mg
   0.1657746580393662    0.0209243614273453    0.8525326593291114 Mg
   0.3474466478325835    0.1447639792049389    0.8299145390804449 Mg
   0.5330824270252364    0.3555431288263807    0.8172645102658873 Mg
   0.6646329938393580    0.4982089071171594    0.8181462274770351 Mg
   0.8237087564591054    0.6713555586302149    0.8303766004983220 Mg
   1.0227000648692648    0.8230109964604493    0.1660309817209644 Mg
   0.0032350504219505    0.6457723257846377    0.3334937841010943 Mg
   0.1427492060241535    0.8192715027626120    0.3184305468790423 Mg
   0.0170614624074541    0.4954730961329152    0.5267620706630824 Mg
   0.1656019143320929    0.6487355939573803    0.5034263489770724 Mg
   0.3294253444736897    0.8199196390310047    0.5151494538378093 Mg
   1.0200401241908164    0.3318236480124997    0.6873870638548661 Mg
   0.1716003943338283    0.4954153784759718    0.6340926086196015 Mg
   0.3137631028553946    0.6711468643684049    0.6692654461524437 Mg
   0.5075188065035394    0.8561339753442772    0.6752420187201900 Mg
   0.0026098740143745    0.1558872062158954    0.8124467736622093 Mg
   0.1491960103216485    0.3065408922823336    0.8076739703478396 Mg
   0.3290783212538154    0.4760555100174602    0.8162568481804323 Mg
   0.5111908712994683    0.6680037307492650    0.8571166528361651 Mg
   0.6557542039409563    0.8112213944291888    0.8076702579120353 Mg
   0.9993417233788970    0.8340720238504425    0.4954033500751926 Mg
   0.0107382230229280    0.6925362511483605    0.6598773838944526 Mg
   0.2022441775872689    0.8159193053851599    0.6461096716193745 Mg
  -0.0016572278500407    0.5078261794357116    0.8514681976517747 Mg
   0.1529578853569611    0.6565665650279400    0.8505488523847544 Mg
   0.3346521165287991    0.8711940471815952    0.8567137453505004 Mg
   0.0029658544024461    0.8486579264196645    0.8227025619840154 Mg
   0.5036652987005341    0.5020610342296606    0.4886857545241348 Mg
   0.8170819374058231    0.1628879457656241    0.1499041928447506 O
   0.0123994053769476    0.3457952278929198    0.1574134597936748 O
   0.0184436471004770    0.1747431969971895    0.3758739910752170 O
   0.5241412937819840    0.1506415602320567    0.1818148756610342 O
   0.6592460495728302    0.3430472514546897    0.1700581335938574 O
   0.8352449430806018    0.5031466737419076    0.1570691447429038 O
  -0.0270007630351954    0.6751518585470216    0.1695801889652517 O
   0.6710081230241031    0.1737483092457055    0.3465009936791587 O
   0.8350427449926809    0.3475680460092905    0.3337091854423142 O
   0.0262110508174177    0.5242521545445653    0.3381628507292050 O
   0.8220216822643988    0.1613710230238555    0.5117747922801231 O
   0.0081292333258484    0.3419332975410330    0.4898599074477479 O
  -0.0223768106271299    0.1518118861084883    0.6568260325548633 O
   0.1336112376801168    0.1755169973236770    0.1710636746990767 O
   0.3592013163139343    0.3218320843370659    0.1927396039080611 O
   0.4961271977839944    0.4904998541516419    0.1768897795785105 O
   0.6702680127125394    0.6908369528458846    0.1581641742938208 O
   0.8347455464481676    0.8407147075841415    0.1546779663523181 O
  -0.0226224143059660    0.0036003924759757    0.1526247632417266 O
   0.3609563703336776    0.1981506287105992    0.3391702471994954 O
   0.5140659556107646    0.3227389758934733    0.3272272511164103 O
   0.6555277771474031    0.4969386354242086    0.3192630739422160 O
   0.8021301484790240    0.6662854389682645    0.3158122595556808 O
  -0.0232976758422879    0.8100124993518070    0.3370816121464851 O
   0.4890137325170233    0.1582883926808137    0.4824316864384717 O
   0.6591329599050808    0.3333667271589408    0.5004641441310453 O
   0.8244887883125182    0.4709796773601486    0.5133737734817491 O
   0.0059064103693058    0.6432664492452005    0.5095341191202940 O
   0.6829071721139596    0.1822136775025704    0.6752746239454622 O
   0.8689605321108700    0.2935652563212429    0.6908632917502882 O
  -0.0045918698001481    0.4791123881438830    0.6741388291762263 O
   0.8307550133315513    0.1793493465706513    0.8242594055934483 O
   0.0146662248961135    0.3453009787336424    0.8264147411078775 O
   0.0060077679474836    0.1559105418603932    0.0050650589676394 O
   0.1732271320993644    0.4804334927998661    0.1932328250741788 O
   0.3316430399632874    0.6432015697692419    0.1635563141488643 O
   0.5221000214760911    0.8542485349917277    0.1908006553161785 O
   0.6594109878273030    0.0018158244004576    0.1448992229348470 O
   0.1793815241947728    0.3498268624864235    0.3607909056336944 O
   0.3395260734022459    0.4847134835099806    0.3410154777243206 O
   0.4891103508250499    0.6515474832766864    0.3245012979914325 O
   0.6567117681626392    0.8420809805652428    0.3411955374155498 O
   0.8094812697169925    0.0200401740451594    0.3248882232740465 O
   0.1640289101705625    0.1518223794645190    0.4807425010479381 O
   0.3600352638345022    0.3276047613266196    0.4914615081523606 O
   0.6782388532071373    0.6779272500132933    0.5016406561693274 O
   0.8243426680545051    0.8449623482544533    0.5043100368176979 O
   0.0090022585742057   -0.0064882893534925    0.4932445827775485 O
   0.3288202016900883    0.1564733593707977    0.6741836510581640 O
   0.4874001051374289    0.3466153405695439    0.6525914705631716 O
   0.6773354373482290    0.4905777637520930    0.6807538794370925 O
   0.7998217834155579    0.6698199596161611    0.6548795896540021 O
  -0.0059013781486465    0.8290077988848505    0.6456104096835769 O
   0.5163038295389161    0.1743198312862826    0.8228674483252224 O
   0.6648479733271234    0.3322540516964486    0.8271603661547776 O
   0.8404957059088763    0.4655438153528362    0.8330676955028973 O
   0.0096926326995173    0.6643637101605177    0.8229085189562164 O
   0.6512525911525660    0.2039637783906302   -0.0005393998174284 O
   0.8680365126906034    0.3400096528770702    0.0251702119867470 O
  -0.0171366983048268    0.4790318608211310   -0.0014451113747502 O
   0.1758956416517010    0.8515275455044012    0.1650965721549627 O
   0.3194403312553795   -0.0057907520115728    0.1690202343938756 O
   0.1849094024315305    0.6614571358656994    0.3325847238820445 O
   0.3351049324124601    0.8366827140071971    0.3458684593679409 O
   0.5233946150422416   -0.0067513778643444    0.3545983317062180 O
   0.1581209963601560    0.5193287271534990    0.4864890484440604 O
   0.3383185857035161    0.6850898363465185    0.5123738183271327 O
   0.4889986443027399    0.8304945750979872    0.5136381110695148 O
   0.6433534021748057   -0.0004836658360164    0.4962573719069251 O
   0.1719694732506460    0.3365297399164730    0.6545745192367552 O
   0.3403395066169383    0.5170558927315527    0.6838620014049693 O
   0.5055133343187697    0.6708996096345711    0.6512794889710946 O
   0.6660574973296398    0.8198245986906810    0.6524444488312922 O
   0.8002012352190535    0.0090516854856997    0.6753797425858188 O
   0.1758185657420725    0.1639916683906213    0.8287953588120749 O
   0.3339533271695969    0.3324702315639408    0.8015883003294257 O
   0.4969431684738871    0.5089782230190281    0.8370482316420883 O
   0.6536980936541862    0.6613808235858452    0.8308309182680487 O
   0.8038495266982779    0.8607033567044585    0.8465323230203721 O
   0.0174432110769574   -0.0023820200706729    0.8694982685143218 O
   0.2992105608481267    0.1693574125926791    0.0031993245951787 O
   0.4890971961161452    0.3594244658193325    0.0113017441158036 O
   0.6441910263908289    0.4998750406535775   -0.0376293745905604 O
   0.8461159142272470    0.6622243378693466   -0.0160032126365455 O
   0.0412444896006093    0.8511795549510822    0.0259372184527458 O
   0.1654161446632855    0.0144277898752358    0.3289390596660847 O
   0.1586660417542496    0.8382738199465012    0.4829301548893596 O
   0.3273514930818439    0.0002634943496343    0.4919848895039929 O
   0.1505653961600509    0.6528040580047487    0.6470516449264211 O
   0.3585428467110269    0.8503093271958373    0.6808039625696624 O
   0.5102009666745331    0.0066501768869283    0.6371909519262543 O
   0.1496208477009006    0.4944770707487153    0.8378707510328918 O
   0.3452374179339308    0.6305543625260220    0.8459535205202533 O
   0.4895286749640089    0.8243163076127623    0.8359177949887745 O
   0.6767404720409846   -0.0005542488157473    0.8204304125448812 O
   0.1671705113724135    0.3307514875764324   -0.0080274347714570 O
   0.3180153225797620    0.4859968589985431   -0.0073050597198070 O
   0.5016348157931970    0.6505755827378916    0.0189659437471008 O
   0.6587207982843187    0.8536511675296904    0.0091800431630246 O
   0.8555788251830367   -0.0094543617492869   -0.0094513642120881 O
   0.1567073645937639   -0.0116249508472455    0.6628692197531346 O
   0.1675434599708917    0.8604555414538226    0.8223954856651368 O
   0.3346141108293249    0.0052863259170768    0.8297514403046545 O
   0.1515166314867472    0.6487389341721673   -0.0055520253671500 O
   0.3331584407069015    0.8225389774834893   -0.0109515038293271 O
   0.4852356312128940    0.0162516668157153    0.0090460656293464 O
   0.1764977539942361   -0.0151989569237879   -0.0074670282472154 O
