Cd Te 
 1.0000000000000000
    13.0867679999999993    0.0000000000000000    0.0000000000000000
     0.0000000000000000   13.0867679999999993    0.0000000000000000
     0.0000000000000000    0.0000000000000000   13.0867679999999993
  31  32
Cartesian
  0.0000001308676800 13.0867677382646388  6.5433833456616002
  0.0000002617353600  6.5433839999999996  0.0000001308676800
  0.0000011778091200  6.5433836073969598  6.5433839999999996
  6.5433829530585594 13.0867678691323182 13.0867677382646388
  6.5433839999999996 13.0867673456615989  6.5433846543384000
  6.5433841308676799  6.5433841308676799 13.0867679999999993
  6.5433841308676799  6.5433836073969598  6.5433839999999996
 12.9955131815299190  3.1957246204367999  3.1957244895691197
  0.0912532480579200  3.1957242278337596  9.8910432486955191
  0.0912536406609600  9.8910435104308796  3.1957255365105599
 12.9955143593390403  9.8910435104308796  9.8910424634894394
  6.5359223174894403  3.2547180693009596  3.2547176766979198
  6.5508455516428796  3.2547180693009596  9.8320500615667186
  6.5508460751135988  9.8320497998313598  3.2547187236393600
  6.5359217940187193  9.8320501924343997  9.8320507159051189
  3.1957248821721596 12.9955140976036798  3.1957244895691197
  3.1957240969660798  0.0912540332640000  9.8910429869601586
  3.2547182001686399  6.5359223174894403  3.2547185927716797
  3.2547178075656000  6.5508465985843207  9.8320492763606389
  9.8910420708863995  0.0912542949993600  3.1957246204367999
  9.8910429869601586 12.9955143593390403  9.8910433795632002
  9.8320503233020791  6.5508469911873597  3.2547182001686399
  9.8320504541697602  6.5359216631510400  9.8320497998313598
  3.1957238352307198  3.1957226574215998 12.9955130506622396
  3.2547175458302395  3.2547179384332798  6.5359217940187193
  3.1957240969660798  9.8910459969167999  0.0912548184700800
  3.2547185927716797  9.8320495380959994  6.5508456825105599
  9.8910439030339194  3.1957222648185599  0.0912549493377600
  9.8320500615667186  3.2547180693009596  6.5508452899075200
  9.8910435104308796  9.8910456043137582 12.9955130506622396
  9.8320508467728001  9.8320501924343997  6.5359228409601595
  1.6322148144830400  1.6322154688214399  4.8846224148935997
  1.5088567145644800  1.5088568454321598 11.5779106310971187
  1.6317122825918400  8.1841077001689602  4.9026608233017592
  1.6322150762184000  8.2021459777094403 11.4545533163846400
  8.1841070458305598  1.6317118899887999  4.9026602998310400
  8.2021454542387193  1.6322152070860798 11.4545535781200005
  8.1815612768515198  8.1815607533807988  4.9052077700899197
  8.1841079619043189  8.1841073075659185 11.4550554556727988
  1.6322150762184000  4.8846221531582392  1.6322152070860798
  1.6317124134595200  4.9026596454926397  8.1841078310366395
  1.5088569762998401 11.5779111545678397  1.5088581541089598
  1.6322150762184000 11.4545525311785585  8.2021444072972791
  8.1841082236396794  4.9026602998310400  1.6317126751948798
  8.1815612768515198  4.9052069848838400  8.1815610151161593
  8.2021454542387193 11.4545527929139190  1.6322145527476799
  8.1841075693012808 11.4550558482758404  8.1841083545073605
  4.8846221531582392  1.6322153379537601  1.6322144218799999
  4.9026604306987194  1.6317121517241600  8.1841078310366395
  4.9026606924340799  8.1841077001689602  1.6317128060625599
  4.9052080318252802  8.1815606225131194  8.1815608842484799
 11.5779119397739194  1.5088557984907198  1.5088574997705599
 11.4545525311785585  1.6322150762184000  8.2021447999003190
 11.4545527929139190  8.2021462394447990  1.6322146836153599
 11.4550563717465597  8.1841070458305598  8.1841070458305598
  4.9052073774868798  4.9052069848838400  4.9052069848838400
  4.9026602998310400  4.9026606924340799 11.4550550630697590
  4.9026609541694395 11.4550561100111992  4.9026602998310400
  4.8846217605551994 11.4545534472523194 11.4545531855169589
 11.4550555865404782  4.9026606924340799  4.9026608233017592
 11.4545526620462397  4.8846217605551994 11.4545538398553592
 11.4545520077078393 11.4545534472523194  4.8846226766289602
 11.5779110237001603 11.5779112854355191 11.5779097150233596
