50.0% N(Distort)=2 ~[0.5,0.5,0.5]       
   1.00000000000000     
    12.5998379999999983    0.0000000000000004    0.0000000000000004
     0.0000000000000004   12.5998379999999983   -0.0000000000000004
    -0.0000000000000004   -0.0000000000000004   12.5998379999999983
   Mg   O 
   109   107
Direct
  0.6660573526434077 -0.0013797932611324  0.0011877348801846
  0.8327497327982791  0.1649174762442467  0.0010990265788424
  0.8327701646946006 -0.0014396536593818  0.1674547820390073
  0.3318221204150498 -0.0013394313169688  0.0012506105066077
  0.4989798495478880  0.1639771319475722  0.0026544878955481
  0.6665326013307604  0.3313497893802193  0.0021093771992842
  0.8330600404332236  0.4984227873070096  0.0012434380261379
  0.4989815271884292  0.0001293097547322  0.1665199806003960
  0.6663459989671598  0.1644029612018964  0.1669568308493026
  0.8335013285690637  0.3311191430049024  0.1668905984684424
  0.6665357594761213  0.9995972564277220  0.3338782298160038
  0.8335007356802669  0.1643603976775021  0.3336651049155741
  0.8331042210684327 -0.0012712346195421  0.5009816049807936
 -0.0009807699665389 -0.0013468627617010  0.0011759329607136
  0.1654159618248280  0.1650278323379155  0.0015340495235963
  0.3316698477902935  0.3312547073157809  0.0029719818320157
  0.4988161330226961  0.4984270948925797  0.0053727921716301
  0.6659998438158385  0.6656244601081470  0.0020694851734210
  0.8325998426233447  0.8322403213970657  0.0011283428471433
  0.1653757647159368 -0.0010056542637129  0.1675722832522815
  0.3320193504114829  0.1654405001629684  0.1680121380817510
  0.4990295473332601  0.3312080348751496  0.1678979551177592
  0.6671845097000226  0.4983602970039276  0.1663568715508991
  0.8328427389128250  0.6659583217993019  0.1669350471598137
  0.3315887522768518  0.0004548590541609  0.3338029593269550
  0.4990121240284282  0.1653454460302183  0.3337865801511654
  0.6663816383792166  0.3276854940836063  0.3302888422267000
  0.8402374480654078  0.4987722868432756  0.3278344744452718
  0.4988065968795682  0.0027975875196629  0.5009439308162962
  0.6672182017727398  0.1637896583407125  0.5009227040845965
  0.8402598030149402  0.3253127214715469  0.5012744291672927
  0.6660224998326855 -0.0005298237378554  0.6681883017706942
  0.8328649265262406  0.1643892986494082  0.6684791417892169
  0.8326141104013555 -0.0014271517325517  0.8347989430684579
 -0.0009212968906277  0.3314459913808530  0.0012112713670225
  0.1643814507081433  0.4985912231914331  0.0026646462687959
  0.3317300876794269  0.6661336181603279  0.0021489822666724
  0.4987949696147332  0.8326685192639520  0.0012796401062253
 -0.0005927679655833  0.1650025002294409  0.1675436966047634
  0.1658640821690006  0.3316119609392658  0.1679902364629347
  0.3316418768303784  0.4986129723373106  0.1679177295632478
  0.4987775353769644  0.6667837850540409  0.1663986300989591
  0.6663131692644093  0.8324948312038302  0.1669656715282472
 -0.0009475049458325 -0.0013024139897959  0.3339915682973010
  0.1658350872060226  0.1654352020979431  0.3342028256728345
  0.3324866545108650  0.3320646232119300  0.3346604730784978
  0.4991125728203495  0.4986965549529002  0.3305981747202847
  0.6659576817290660  0.6655599056174660  0.3327064396812060
  0.8326685983052503  0.8322936535640488  0.3338793025602014
  0.1643292182344284  0.0001434055682404  0.5011728898308417
  0.3316255984844502  0.1653415907933821  0.5012075273864262
  0.4990975072687083  0.3280145122244523  0.5012204476563705
  0.6978452141652151  0.4794453527705389  0.4820400801945063
  0.8359156893508154  0.6661196552569053  0.5007116325524870
  0.3317304018251875 -0.0004361616727107  0.6687075569141147
  0.4987919227268524  0.1638282065962292  0.6692987631209689
  0.6659672019182338  0.3301347178902195  0.6680417744126861
  0.8359093481050209  0.4982065666791121  0.6686051024136465
  0.4988106873672615 -0.0012984441055001  0.8352207673732440
  0.6663255651512987  0.1643999277592457  0.8349971769663261
  0.8326318178678929  0.3313505835366425  0.8347639464117040
 -0.0010109350018025  0.6656916113741255  0.0011723725987205
  0.1652903815383078  0.8323651603309503  0.0011135860111062
  0.0005199763511433  0.4986031044157588  0.1664816619541345
  0.1647828976846596  0.6659477837143563  0.1669703318281466
  0.3314896071920844  0.8330886905576359  0.1669631042281483
  0.0008523398241649  0.3312012664717269  0.3337443022975888
  0.1657543436188724  0.4985958125229346  0.3337448537778034
  0.3280752995925034  0.6659619172029184  0.3303061658634256
  0.4991792240630297  0.8398302762203689  0.3278905122082770
  0.0005384317145252  0.1639484563796173  0.5011613774825512
  0.1657439451049547  0.3311997032713981  0.5011597328653149
  0.3284172328091813  0.4986999762748382  0.5012187269832866
  0.4798120360931760  0.6974052115127688  0.4820890081814103
  0.6665260721143549  0.8355178485642909  0.5007378681226438
 -0.0009844987798758  0.9986396736692081  0.6682773377941207
  0.1648226450975799  0.1644272751459375  0.6685175616810310
  0.3281330536216422  0.3277301775363075  0.6684854658115269
  0.4799023841940829  0.4795247987830549  0.6999583679256097
  0.6723787047423444  0.6719412588881157  0.6744411691524308
  0.8338201284504774  0.8334269267838396  0.6680583779661221
  0.1653277174236294 -0.0014393958224159  0.8349412348994665
  0.3315699965062471  0.1643971679874978  0.8356432144354172
  0.4992071425668773  0.3253534358928666  0.8423480065621441
  0.6665130662298746  0.4982302396463024  0.8380649629352988
  0.8338052767232337  0.6655183067959074  0.8359686810078309
  0.9989241969293737  0.8323881653639549  0.1674588774905969
 -0.0000363682505554  0.6661411613165830  0.3338495056184080
  0.1647169194883935  0.8331062150717665  0.3336965206197987
  0.0032194872337788  0.4983968532099148  0.5008966226701268
  0.1641645516374275  0.6667826375266572  0.5009204008892254
  0.3256905301390792  0.8398402203533545  0.5013262072528281
 -0.0000142880092067  0.3313365169359845  0.6686680452005905
  0.1642210381036066  0.4983816763810704  0.6692898739354362
  0.3305178047061855  0.6655330700009299  0.6680741525003618
  0.4986150342700049  0.8354870055110065  0.6686360709711814
 -0.0010571791644068  0.1649453930490414  0.8349389604858229
  0.1648063249832328  0.3311645645180026  0.8356345835153164
  0.3257419414268242  0.4988042869243676  0.8423713532696706
  0.4986270140014752  0.6660963048807865  0.8380584504162286
  0.6659105272482646  0.8334023683606190  0.8359867671398055
 -0.0008783003546499  0.8327095861020576  0.5009741999388017
 -0.0001258544960328  0.6656202980305226  0.6681646235403110
  0.1647871295302859  0.8324640054125557  0.6685140859786785
 -0.0008785882524806  0.4984200976164093  0.8352094717782192
  0.1647878975025874  0.6659322502475690  0.8350206037063174
  0.3317578256267378  0.8322089049723204  0.8347966771702727
 -0.0010377346816048  0.8322413238245747  0.8347895759016438
  0.5569644850619435  0.5565477122229843  0.5589983722838289
  0.8325994419954797  0.1652190612977108  0.1678179319155135
 -0.0006008506051589  0.3319512219709646  0.1678276952889796
 -0.0006163820319103  0.1652493073164224  0.3345589535605897
  0.4992846855824273  0.1655700039786345  0.1681989165426832
  0.6662573185495738  0.3315552717797048  0.1674940895272772
  0.8336662874875620  0.4986070525108101  0.1666216287531450
 -0.0012377660589373  0.6654072185611843  0.1677415302152736
  0.6662643624388406  0.1648762158394687  0.3341805717419464
  0.8331931135441784  0.3325322056647673  0.3351351495917890
  0.0013997386780548  0.4987212079881796  0.3335732456416462
  0.8336919709869287  0.1640458122008847  0.5012090906561536
  0.0014020120044246  0.3310114353889452  0.5013066426864887
 -0.0012030620321750  0.1651675714516539  0.6680136498641842
  0.1658488795469146  0.1654195688513936  0.1680371984426579
  0.3327494438828948  0.3323169666829652  0.1688337575239748
  0.4995244391009702  0.4991068884271838  0.1686774666403285
  0.6657152727710031  0.6653268619363771  0.1681511315046870
  0.8320815737363629  0.8317209034979227  0.1679365946977108
  0.9989285286335344 -0.0014368756634781  0.1677754639183526
  0.3327158540489902  0.1662197563517347  0.3349562560627733
  0.5000914963217178  0.3330814830326575  0.3357085847625539
  0.6686759972989844  0.4974433645651259  0.3314467370727471
  0.8319435355679085  0.6644332593583537  0.3354076728667746
 -0.0013975256587714  0.8319718525416206  0.3345433019397754
  0.4995210903386975  0.1660483720271995  0.5017107335362286
  0.6686410916045236  0.3288467215766381  0.5000147823944846
  0.8431999480299212  0.4978586392757021  0.5003770656668416
 -0.0001448507094783  0.6657623583536164  0.5011709838113652
  0.6657259425857953  0.1655269827994904  0.6679180580384451
  0.8319452188497376  0.3328325689324444  0.6669746044788153
 -0.0001381233106515  0.4985882962152874  0.6683469312917155
  0.8320840075401940  0.1653507193975371  0.8343019958597554
 -0.0013713328247225  0.3319657241383066  0.8345516115753926
 -0.0010583680368104  0.1652115717419702  0.0011517950922479
  0.1660141972837078  0.4988762279039774  0.1681771575926538
  0.3319640723180664  0.6658365506644592  0.1675139086970371
  0.4989921030695715  0.8332610954116877  0.1666725058527428
  0.6657837820989296 -0.0016121069341656  0.1677619610669121
  0.1666466661827437  0.3322998995443145  0.3349280033608247
  0.3334960060471001  0.4996590956130362  0.3357077218906818
  0.4978495159991935  0.6682197429684010  0.3314926029790367
  0.6648345787953505  0.8315502927633354  0.3354423568253676
  0.8323573951081149 -0.0017670351184129  0.3345482279188934
  0.1660088006728417  0.1655880865697717  0.5015194767145830
  0.3335093509418300  0.3330973168704027  0.5022782689188247
  0.6596757196630073  0.6592369408175581  0.5017264135628152
  0.8310584339713111  0.8306480652894340  0.5012995988260148
 -0.0012577468137545 -0.0016406300487484  0.5012698246200168
  0.3319973121293103  0.1649013550941699  0.6684551423825478
  0.4978946948486495  0.3289134270735394  0.6707449559136861
  0.6596473399705981  0.4991683677160406  0.6616642723085909
  0.8323319006405887  0.6644618540165566  0.6670270409725904
 -0.0013106705786147  0.8317456962023934  0.6677855765456753
  0.4990374900812291  0.1640902092134201  0.8358113508446364
  0.6648311874811742  0.3328702882784728  0.8340826151630933
  0.8310150345475665  0.4987148616587971  0.8331771959621009
 -0.0013282078576556  0.6651856965670997  0.8343274644956099
  0.6657675491742895  0.1651480015084611  0.0009800352521309
  0.8323485115284037  0.3319405555004236  0.0007815459991124
 -0.0012708293615723  0.4986589425579718  0.0009103846826049
  0.1655862006127356  0.8321810931577872  0.1678507041911961
  0.3323123414098417  0.9989615003695345  0.1678850002267337
  0.1652611407951333  0.6658384282840989  0.3341715468766311
  0.3329306080763371  0.8327678184057591  0.3351941491931958
  0.4991076373586843  0.0010102076852464  0.3336214942095679
  0.1664615249471886  0.4990848452812772  0.5016769312539114
  0.3292138043557804  0.6682029958191731  0.5000427272859159
  0.4982546624333691  0.8427745350441763  0.5004125789997088
  0.6662052742719766 -0.0005491096035821  0.5012040343463262
  0.1653160369009751  0.3315856020012274  0.6684307772730300
  0.3292893764122803  0.4974768868191218  0.6707696442125087
  0.4995760391194758  0.6592125217256239  0.6616890949493888
  0.6648787252726177  0.8318938425466497  0.6670289237284858
  0.8321180292387869 -0.0017042856779287  0.6677991799679862
  0.1656542688235184  0.1652547831123926  0.8347881815783739
  0.3330110065273466  0.3325898805173187  0.8353382448242112
  0.4982871399535549  0.4978651442121693  0.8452872938712317
  0.6648688907807561  0.6644574262902457  0.8344536491954118
  0.8317228112823409  0.8313216837326530  0.8339242019418065
 -0.0012154005868370  0.9984118081545944  0.8344801744302142
  0.3323745072899692  0.1652627641828886  0.0015661384531309
  0.4991592420299524  0.3310696300971600  0.0035512679372707
  0.6661809968358303  0.4986047548897727  0.0020346978965430
  0.8320930064958382  0.6651880371764365  0.0008901982227802
 -0.0012475902224274  0.8318717338063365  0.0009830495851217
  0.1656177567919745 -0.0010343955560009  0.3345821427329406
  0.1644443900935149  0.8332643244150305  0.5012399027953506
  0.3314143009518301  0.0009925483781739  0.5013596108404010
  0.1659244159929449  0.6653174255886951  0.6679265936577278
  0.3332517219476096  0.8314896670633911  0.6670141069918009
  0.4989934806395894 -0.0005499928359610  0.6683695475039898
  0.1644945183981231  0.4986353316168888  0.8358264413098904
  0.3332748307894214  0.6643968349069909  0.8341112877244207
  0.4991250496117781  0.8305832948023846  0.8331955694407168
  0.6655636390621426 -0.0017254687315756  0.8343224082119370
  0.1656822259139041  0.3319697998163560  0.0015603043317017
  0.3314788119536184  0.4987534491977982  0.0035597111751382
  0.4989869072637030  0.6657821185293580  0.0020659921772192
  0.6655516648462023  0.8317408819400499  0.0009037299946733
  0.8322361980969251 -0.0016103236398916  0.0009822178661962
  0.1655666408609620 -0.0016100878007131  0.6680278798845465
  0.1657435203156681  0.8316871945753942  0.8343110382379062
  0.3323521236090407  0.9981957599883964  0.8345636056099537
  0.1655328970625189  0.6653812731695191  0.0009933817189355
  0.3323219549991414  0.8319329565855917  0.0008243403625888
  0.4990273023174360 -0.0016910990589199  0.0009341256600421
  0.1655728202840659 -0.0014447461463610  0.0011608045478934
 
  0.00000000E+00  0.00000000E+00  0.00000000E+00
  0.00000000E+00  0.00000000E+00  0.00000000E+00
  0.00000000E+00  0.00000000E+00  0.00000000E+00
  0.00000000E+00  0.00000000E+00  0.00000000E+00
  0.00000000E+00  0.00000000E+00  0.00000000E+00
  0.00000000E+00  0.00000000E+00  0.00000000E+00
  0.00000000E+00  0.00000000E+00  0.00000000E+00
  0.00000000E+00  0.00000000E+00  0.00000000E+00
  0.00000000E+00  0.00000000E+00  0.00000000E+00
  0.00000000E+00  0.00000000E+00  0.00000000E+00
  0.00000000E+00  0.00000000E+00  0.00000000E+00
  0.00000000E+00  0.00000000E+00  0.00000000E+00
  0.00000000E+00  0.00000000E+00  0.00000000E+00
  0.00000000E+00  0.00000000E+00  0.00000000E+00
  0.00000000E+00  0.00000000E+00  0.00000000E+00
  0.00000000E+00  0.00000000E+00  0.00000000E+00
  0.00000000E+00  0.00000000E+00  0.00000000E+00
  0.00000000E+00  0.00000000E+00  0.00000000E+00
  0.00000000E+00  0.00000000E+00  0.00000000E+00
  0.00000000E+00  0.00000000E+00  0.00000000E+00
  0.00000000E+00  0.00000000E+00  0.00000000E+00
  0.00000000E+00  0.00000000E+00  0.00000000E+00
  0.00000000E+00  0.00000000E+00  0.00000000E+00
  0.00000000E+00  0.00000000E+00  0.00000000E+00
  0.00000000E+00  0.00000000E+00  0.00000000E+00
  0.00000000E+00  0.00000000E+00  0.00000000E+00
  0.00000000E+00  0.00000000E+00  0.00000000E+00
  0.00000000E+00  0.00000000E+00  0.00000000E+00
  0.00000000E+00  0.00000000E+00  0.00000000E+00
  0.00000000E+00  0.00000000E+00  0.00000000E+00
  0.00000000E+00  0.00000000E+00  0.00000000E+00
  0.00000000E+00  0.00000000E+00  0.00000000E+00
  0.00000000E+00  0.00000000E+00  0.00000000E+00
  0.00000000E+00  0.00000000E+00  0.00000000E+00
  0.00000000E+00  0.00000000E+00  0.00000000E+00
  0.00000000E+00  0.00000000E+00  0.00000000E+00
  0.00000000E+00  0.00000000E+00  0.00000000E+00
  0.00000000E+00  0.00000000E+00  0.00000000E+00
  0.00000000E+00  0.00000000E+00  0.00000000E+00
  0.00000000E+00  0.00000000E+00  0.00000000E+00
  0.00000000E+00  0.00000000E+00  0.00000000E+00
  0.00000000E+00  0.00000000E+00  0.00000000E+00
  0.00000000E+00  0.00000000E+00  0.00000000E+00
  0.00000000E+00  0.00000000E+00  0.00000000E+00
  0.00000000E+00  0.00000000E+00  0.00000000E+00
  0.00000000E+00  0.00000000E+00  0.00000000E+00
  0.00000000E+00  0.00000000E+00  0.00000000E+00
  0.00000000E+00  0.00000000E+00  0.00000000E+00
  0.00000000E+00  0.00000000E+00  0.00000000E+00
  0.00000000E+00  0.00000000E+00  0.00000000E+00
  0.00000000E+00  0.00000000E+00  0.00000000E+00
  0.00000000E+00  0.00000000E+00  0.00000000E+00
  0.00000000E+00  0.00000000E+00  0.00000000E+00
  0.00000000E+00  0.00000000E+00  0.00000000E+00
  0.00000000E+00  0.00000000E+00  0.00000000E+00
  0.00000000E+00  0.00000000E+00  0.00000000E+00
  0.00000000E+00  0.00000000E+00  0.00000000E+00
  0.00000000E+00  0.00000000E+00  0.00000000E+00
  0.00000000E+00  0.00000000E+00  0.00000000E+00
  0.00000000E+00  0.00000000E+00  0.00000000E+00
  0.00000000E+00  0.00000000E+00  0.00000000E+00
  0.00000000E+00  0.00000000E+00  0.00000000E+00
  0.00000000E+00  0.00000000E+00  0.00000000E+00
  0.00000000E+00  0.00000000E+00  0.00000000E+00
  0.00000000E+00  0.00000000E+00  0.00000000E+00
  0.00000000E+00  0.00000000E+00  0.00000000E+00
  0.00000000E+00  0.00000000E+00  0.00000000E+00
  0.00000000E+00  0.00000000E+00  0.00000000E+00
  0.00000000E+00  0.00000000E+00  0.00000000E+00
  0.00000000E+00  0.00000000E+00  0.00000000E+00
  0.00000000E+00  0.00000000E+00  0.00000000E+00
  0.00000000E+00  0.00000000E+00  0.00000000E+00
  0.00000000E+00  0.00000000E+00  0.00000000E+00
  0.00000000E+00  0.00000000E+00  0.00000000E+00
  0.00000000E+00  0.00000000E+00  0.00000000E+00
  0.00000000E+00  0.00000000E+00  0.00000000E+00
  0.00000000E+00  0.00000000E+00  0.00000000E+00
  0.00000000E+00  0.00000000E+00  0.00000000E+00
  0.00000000E+00  0.00000000E+00  0.00000000E+00
  0.00000000E+00  0.00000000E+00  0.00000000E+00
  0.00000000E+00  0.00000000E+00  0.00000000E+00
  0.00000000E+00  0.00000000E+00  0.00000000E+00
  0.00000000E+00  0.00000000E+00  0.00000000E+00
  0.00000000E+00  0.00000000E+00  0.00000000E+00
  0.00000000E+00  0.00000000E+00  0.00000000E+00
  0.00000000E+00  0.00000000E+00  0.00000000E+00
  0.00000000E+00  0.00000000E+00  0.00000000E+00
  0.00000000E+00  0.00000000E+00  0.00000000E+00
  0.00000000E+00  0.00000000E+00  0.00000000E+00
  0.00000000E+00  0.00000000E+00  0.00000000E+00
  0.00000000E+00  0.00000000E+00  0.00000000E+00
  0.00000000E+00  0.00000000E+00  0.00000000E+00
  0.00000000E+00  0.00000000E+00  0.00000000E+00
  0.00000000E+00  0.00000000E+00  0.00000000E+00
  0.00000000E+00  0.00000000E+00  0.00000000E+00
  0.00000000E+00  0.00000000E+00  0.00000000E+00
  0.00000000E+00  0.00000000E+00  0.00000000E+00
  0.00000000E+00  0.00000000E+00  0.00000000E+00
  0.00000000E+00  0.00000000E+00  0.00000000E+00
  0.00000000E+00  0.00000000E+00  0.00000000E+00
  0.00000000E+00  0.00000000E+00  0.00000000E+00
  0.00000000E+00  0.00000000E+00  0.00000000E+00
  0.00000000E+00  0.00000000E+00  0.00000000E+00
  0.00000000E+00  0.00000000E+00  0.00000000E+00
  0.00000000E+00  0.00000000E+00  0.00000000E+00
  0.00000000E+00  0.00000000E+00  0.00000000E+00
  0.00000000E+00  0.00000000E+00  0.00000000E+00
  0.00000000E+00  0.00000000E+00  0.00000000E+00
  0.00000000E+00  0.00000000E+00  0.00000000E+00
  0.00000000E+00  0.00000000E+00  0.00000000E+00
  0.00000000E+00  0.00000000E+00  0.00000000E+00
  0.00000000E+00  0.00000000E+00  0.00000000E+00
  0.00000000E+00  0.00000000E+00  0.00000000E+00
  0.00000000E+00  0.00000000E+00  0.00000000E+00
  0.00000000E+00  0.00000000E+00  0.00000000E+00
  0.00000000E+00  0.00000000E+00  0.00000000E+00
  0.00000000E+00  0.00000000E+00  0.00000000E+00
  0.00000000E+00  0.00000000E+00  0.00000000E+00
  0.00000000E+00  0.00000000E+00  0.00000000E+00
  0.00000000E+00  0.00000000E+00  0.00000000E+00
  0.00000000E+00  0.00000000E+00  0.00000000E+00
  0.00000000E+00  0.00000000E+00  0.00000000E+00
  0.00000000E+00  0.00000000E+00  0.00000000E+00
  0.00000000E+00  0.00000000E+00  0.00000000E+00
  0.00000000E+00  0.00000000E+00  0.00000000E+00
  0.00000000E+00  0.00000000E+00  0.00000000E+00
  0.00000000E+00  0.00000000E+00  0.00000000E+00
  0.00000000E+00  0.00000000E+00  0.00000000E+00
  0.00000000E+00  0.00000000E+00  0.00000000E+00
  0.00000000E+00  0.00000000E+00  0.00000000E+00
  0.00000000E+00  0.00000000E+00  0.00000000E+00
  0.00000000E+00  0.00000000E+00  0.00000000E+00
  0.00000000E+00  0.00000000E+00  0.00000000E+00
  0.00000000E+00  0.00000000E+00  0.00000000E+00
  0.00000000E+00  0.00000000E+00  0.00000000E+00
  0.00000000E+00  0.00000000E+00  0.00000000E+00
  0.00000000E+00  0.00000000E+00  0.00000000E+00
  0.00000000E+00  0.00000000E+00  0.00000000E+00
  0.00000000E+00  0.00000000E+00  0.00000000E+00
  0.00000000E+00  0.00000000E+00  0.00000000E+00
  0.00000000E+00  0.00000000E+00  0.00000000E+00
  0.00000000E+00  0.00000000E+00  0.00000000E+00
  0.00000000E+00  0.00000000E+00  0.00000000E+00
  0.00000000E+00  0.00000000E+00  0.00000000E+00
  0.00000000E+00  0.00000000E+00  0.00000000E+00
  0.00000000E+00  0.00000000E+00  0.00000000E+00
  0.00000000E+00  0.00000000E+00  0.00000000E+00
  0.00000000E+00  0.00000000E+00  0.00000000E+00
  0.00000000E+00  0.00000000E+00  0.00000000E+00
  0.00000000E+00  0.00000000E+00  0.00000000E+00
  0.00000000E+00  0.00000000E+00  0.00000000E+00
  0.00000000E+00  0.00000000E+00  0.00000000E+00
  0.00000000E+00  0.00000000E+00  0.00000000E+00
  0.00000000E+00  0.00000000E+00  0.00000000E+00
  0.00000000E+00  0.00000000E+00  0.00000000E+00
  0.00000000E+00  0.00000000E+00  0.00000000E+00
  0.00000000E+00  0.00000000E+00  0.00000000E+00
  0.00000000E+00  0.00000000E+00  0.00000000E+00
  0.00000000E+00  0.00000000E+00  0.00000000E+00
  0.00000000E+00  0.00000000E+00  0.00000000E+00
  0.00000000E+00  0.00000000E+00  0.00000000E+00
  0.00000000E+00  0.00000000E+00  0.00000000E+00
  0.00000000E+00  0.00000000E+00  0.00000000E+00
  0.00000000E+00  0.00000000E+00  0.00000000E+00
  0.00000000E+00  0.00000000E+00  0.00000000E+00
  0.00000000E+00  0.00000000E+00  0.00000000E+00
  0.00000000E+00  0.00000000E+00  0.00000000E+00
  0.00000000E+00  0.00000000E+00  0.00000000E+00
  0.00000000E+00  0.00000000E+00  0.00000000E+00
  0.00000000E+00  0.00000000E+00  0.00000000E+00
  0.00000000E+00  0.00000000E+00  0.00000000E+00
  0.00000000E+00  0.00000000E+00  0.00000000E+00
  0.00000000E+00  0.00000000E+00  0.00000000E+00
  0.00000000E+00  0.00000000E+00  0.00000000E+00
  0.00000000E+00  0.00000000E+00  0.00000000E+00
  0.00000000E+00  0.00000000E+00  0.00000000E+00
  0.00000000E+00  0.00000000E+00  0.00000000E+00
  0.00000000E+00  0.00000000E+00  0.00000000E+00
  0.00000000E+00  0.00000000E+00  0.00000000E+00
  0.00000000E+00  0.00000000E+00  0.00000000E+00
  0.00000000E+00  0.00000000E+00  0.00000000E+00
  0.00000000E+00  0.00000000E+00  0.00000000E+00
  0.00000000E+00  0.00000000E+00  0.00000000E+00
  0.00000000E+00  0.00000000E+00  0.00000000E+00
  0.00000000E+00  0.00000000E+00  0.00000000E+00
  0.00000000E+00  0.00000000E+00  0.00000000E+00
  0.00000000E+00  0.00000000E+00  0.00000000E+00
  0.00000000E+00  0.00000000E+00  0.00000000E+00
  0.00000000E+00  0.00000000E+00  0.00000000E+00
  0.00000000E+00  0.00000000E+00  0.00000000E+00
  0.00000000E+00  0.00000000E+00  0.00000000E+00
  0.00000000E+00  0.00000000E+00  0.00000000E+00
  0.00000000E+00  0.00000000E+00  0.00000000E+00
  0.00000000E+00  0.00000000E+00  0.00000000E+00
  0.00000000E+00  0.00000000E+00  0.00000000E+00
  0.00000000E+00  0.00000000E+00  0.00000000E+00
  0.00000000E+00  0.00000000E+00  0.00000000E+00
  0.00000000E+00  0.00000000E+00  0.00000000E+00
  0.00000000E+00  0.00000000E+00  0.00000000E+00
  0.00000000E+00  0.00000000E+00  0.00000000E+00
  0.00000000E+00  0.00000000E+00  0.00000000E+00
  0.00000000E+00  0.00000000E+00  0.00000000E+00
  0.00000000E+00  0.00000000E+00  0.00000000E+00
  0.00000000E+00  0.00000000E+00  0.00000000E+00
  0.00000000E+00  0.00000000E+00  0.00000000E+00
  0.00000000E+00  0.00000000E+00  0.00000000E+00
  0.00000000E+00  0.00000000E+00  0.00000000E+00
  0.00000000E+00  0.00000000E+00  0.00000000E+00
  0.00000000E+00  0.00000000E+00  0.00000000E+00
  0.00000000E+00  0.00000000E+00  0.00000000E+00
  0.00000000E+00  0.00000000E+00  0.00000000E+00
  0.00000000E+00  0.00000000E+00  0.00000000E+00
  0.00000000E+00  0.00000000E+00  0.00000000E+00
  0.00000000E+00  0.00000000E+00  0.00000000E+00
  0.00000000E+00  0.00000000E+00  0.00000000E+00
  0.00000000E+00  0.00000000E+00  0.00000000E+00
