-20.0%_BDM__vac_4_Se[0.08333333 0.555145
   1.0000000000000000     
    11.8576449999999998    0.0000000000000000    0.0000000000000000
     0.0000000000000000   11.5459130000000005    0.0000000000000000
     0.0000000000000000    0.0000000000000000   11.9281419999999994
   O    Sb   Se
     1    24    35
Direct
  0.0837682642974210  0.5942250778794540  0.9175463013974309
  0.2553920709854433  0.0341650430237699  0.1401064363737244
  0.7510824035313541  0.1681400479677393  0.5289896611653148
  0.4171973608149258  0.1681897640857561  0.5290830086987375
  0.0840418353266789  0.1686834969024045  0.5352380234031090
  0.5841981788174960  0.8296061179643814  0.4654957002720959
  0.2505955145956612  0.8293925290762906  0.4663074281004044
  0.9367730946622400  0.6626298325770509  0.9694782519467221
  0.5837474014081064  0.6585964283727607  0.9641777627642075
  0.2307925463273051  0.6626349672462514  0.9694164911473246
  0.7513225589321568  0.3306690972494744  0.0240244283434766
  0.4165601714597711  0.3305533771718920  0.0240143288360375
  0.0838997846116483  0.3147057066561543  0.0280715809433600
  0.9177321772590513  0.8295812958998890  0.4657637334571567
  0.5843286969275642  0.4616360391581069  0.6433088707334467
  0.9156728642950662  0.4620696442178991  0.6434302518651180
  0.5835324673193080  0.0335396462136408  0.1393313934786881
  0.9118425539847803  0.0345828994805597  0.1402915466443793
  0.4174823242632617  0.9540643584412111  0.8540864393542402
  0.0837710478323642  0.9512296775653887  0.8492832202527880
  0.0845322061729276  0.5375018002409259  0.3538096137759912
  0.4179453465328062  0.5356203960166314  0.3540995747715092
  0.7510400733937188  0.5357692818305591  0.3541124699870539
  0.2526338740728399  0.4621722918309704  0.6433703686203761
  0.7498914029969197  0.9540461174892827  0.8541275748265803
  0.5842899802652511  0.3709025233691378  0.4454010834396337
  0.9179127057937121  0.3715134413622289  0.4467006607716481
  0.0842527826348026  0.6290674581331699  0.5500479231935154
  0.4176988921054657  0.6265700752979773  0.5508868193951503
  0.7507283057358755  0.6267307838329814  0.5509735443848185
  0.4113588002974050  0.5511497548529645  0.8695276754660004
  0.4191072944243325  0.1915323763498156  0.2026444761566978
  0.2515767792131042  0.1249685250389537  0.9436578545218488
  0.5839172617602995  0.1176929060095875  0.9388165470615667
  0.9159023305435886  0.1250571056431291  0.9437203307380359
  0.0840386959530693  0.1893066116245799  0.2060921210785049
  0.7483022298076049  0.1917559314501699  0.2027534847912159
  0.2476986970847236  0.4409249495147080  0.1198809269204108
  0.2504711955506013  0.3715195462186704  0.4466733527311698
  0.7564435693779841  0.5510920979965671  0.8696046927049899
  0.7515332886234446  0.8672109660370569  0.0521693424632906
  0.9162913165280836  0.0531298880741146  0.6275879287003379
  0.0838804128647752  0.8700356251241699  0.0509463744190255
  0.0843906097309533  0.9461255797106453  0.3713793285998693
  0.4174624826918808  0.9442436769715083  0.3695935822102352
  0.7507496404630033  0.9443715386472079  0.3693502726491069
  0.2518572612341933  0.0533302507368243  0.6276801353903974
  0.5841986362877736  0.0537930928452368  0.6254281613342767
  0.5839423323639099  0.4432777994968122  0.1232828715948243
  0.0842499256598908  0.3088994404476163  0.7117266611268901
  0.4173076131056381  0.3058817984274211  0.7061905481023505
  0.7510127568315453  0.3056755294791119  0.7061798000560151
  0.2509389371257474  0.6921891119146899  0.2887956801627527
  0.5842349498184544  0.6909854604987783  0.2889994423953549
  0.9176377127852547  0.6919855190237314  0.2884629479491025
  0.2457467477712174  0.7961680160710592  0.7884537874347265
  0.5838113024096548  0.8006702387120233  0.7880724056106960
  0.9220421301479266  0.7960728469427706  0.7884657279672082
  0.4159752828221923  0.8670376039332506  0.0520638825913936
  0.9202452493657755  0.4408623056529017  0.1200429947276778

  0.00000000E+00  0.00000000E+00  0.00000000E+00
  0.00000000E+00  0.00000000E+00  0.00000000E+00
  0.00000000E+00  0.00000000E+00  0.00000000E+00
  0.00000000E+00  0.00000000E+00  0.00000000E+00
  0.00000000E+00  0.00000000E+00  0.00000000E+00
  0.00000000E+00  0.00000000E+00  0.00000000E+00
  0.00000000E+00  0.00000000E+00  0.00000000E+00
  0.00000000E+00  0.00000000E+00  0.00000000E+00
  0.00000000E+00  0.00000000E+00  0.00000000E+00
  0.00000000E+00  0.00000000E+00  0.00000000E+00
  0.00000000E+00  0.00000000E+00  0.00000000E+00
  0.00000000E+00  0.00000000E+00  0.00000000E+00
  0.00000000E+00  0.00000000E+00  0.00000000E+00
  0.00000000E+00  0.00000000E+00  0.00000000E+00
  0.00000000E+00  0.00000000E+00  0.00000000E+00
  0.00000000E+00  0.00000000E+00  0.00000000E+00
  0.00000000E+00  0.00000000E+00  0.00000000E+00
  0.00000000E+00  0.00000000E+00  0.00000000E+00
  0.00000000E+00  0.00000000E+00  0.00000000E+00
  0.00000000E+00  0.00000000E+00  0.00000000E+00
  0.00000000E+00  0.00000000E+00  0.00000000E+00
  0.00000000E+00  0.00000000E+00  0.00000000E+00
  0.00000000E+00  0.00000000E+00  0.00000000E+00
  0.00000000E+00  0.00000000E+00  0.00000000E+00
  0.00000000E+00  0.00000000E+00  0.00000000E+00
  0.00000000E+00  0.00000000E+00  0.00000000E+00
  0.00000000E+00  0.00000000E+00  0.00000000E+00
  0.00000000E+00  0.00000000E+00  0.00000000E+00
  0.00000000E+00  0.00000000E+00  0.00000000E+00
  0.00000000E+00  0.00000000E+00  0.00000000E+00
  0.00000000E+00  0.00000000E+00  0.00000000E+00
  0.00000000E+00  0.00000000E+00  0.00000000E+00
  0.00000000E+00  0.00000000E+00  0.00000000E+00
  0.00000000E+00  0.00000000E+00  0.00000000E+00
  0.00000000E+00  0.00000000E+00  0.00000000E+00
  0.00000000E+00  0.00000000E+00  0.00000000E+00
  0.00000000E+00  0.00000000E+00  0.00000000E+00
  0.00000000E+00  0.00000000E+00  0.00000000E+00
  0.00000000E+00  0.00000000E+00  0.00000000E+00
  0.00000000E+00  0.00000000E+00  0.00000000E+00
  0.00000000E+00  0.00000000E+00  0.00000000E+00
  0.00000000E+00  0.00000000E+00  0.00000000E+00
  0.00000000E+00  0.00000000E+00  0.00000000E+00
  0.00000000E+00  0.00000000E+00  0.00000000E+00
  0.00000000E+00  0.00000000E+00  0.00000000E+00
  0.00000000E+00  0.00000000E+00  0.00000000E+00
  0.00000000E+00  0.00000000E+00  0.00000000E+00
  0.00000000E+00  0.00000000E+00  0.00000000E+00
  0.00000000E+00  0.00000000E+00  0.00000000E+00
  0.00000000E+00  0.00000000E+00  0.00000000E+00
  0.00000000E+00  0.00000000E+00  0.00000000E+00
  0.00000000E+00  0.00000000E+00  0.00000000E+00
  0.00000000E+00  0.00000000E+00  0.00000000E+00
  0.00000000E+00  0.00000000E+00  0.00000000E+00
  0.00000000E+00  0.00000000E+00  0.00000000E+00
  0.00000000E+00  0.00000000E+00  0.00000000E+00
  0.00000000E+00  0.00000000E+00  0.00000000E+00
  0.00000000E+00  0.00000000E+00  0.00000000E+00
  0.00000000E+00  0.00000000E+00  0.00000000E+00
  0.00000000E+00  0.00000000E+00  0.00000000E+00
