KPOINTS from doped, with reciprocal_density = 810/Å⁻³
0
Gamma
18 18 11
