pymatgen with grid density = 1244 / number of atoms
0
Gamma
10 10 3
