KPOINTS from doped, with reciprocal_density = 15/Å⁻³
0
Gamma
2 2 2
