KPOINTS from doped, with reciprocal_density = 50/Å⁻³
0
Gamma
6 6 6
