KPOINTS from doped, with reciprocal_density = 390/Å⁻³
0
Gamma
12 12 3
