ALGO = Normal
EDIFF = 1e-08
EDIFFG = -0.0001
ENCUT = 585.0
GGA = PS
IBRION = 2
ISIF = 3
ISMEAR = 0
ISPIN = 1
ISYM = 2
KPAR = 2
LCHARG = True
LHFCALC = False
LREAL = False
LWAVE = False
NCORE = 8
NELM = 60
NELMIN = 5
NSW = 800
PREC = Accurate
SIGMA = 0.1
