50.0% N(Distort)=3 ~[0.5,0.5,0.5]       
   1.00000000000000     
    12.5998379999999983    0.0000000000000004    0.0000000000000004
     0.0000000000000004   12.5998379999999983   -0.0000000000000004
    -0.0000000000000004   -0.0000000000000004   12.5998379999999983
   Mg   O 
   109   107
Direct
  0.6674295461742259 -0.0011596408234717  0.0010463038500204
  0.8341241597318053  0.1651410539415089  0.0010030496450081
  0.8340767187266568 -0.0012026614770811  0.1673362889573357
  0.3331754162997155 -0.0010846767661717  0.0011091038287779
  0.5003552898593061  0.1642457513579698  0.0025654382015516
  0.6678943079109488  0.3315687423782113  0.0020356195655164
  0.8343766592066953  0.4986492749984913  0.0011562415391761
  0.5003068081901616  0.0003718278580634  0.1664137331082510
  0.6676861293965565  0.1646373260033589  0.1668462151470607
  0.8348354675654770  0.3313536908726115  0.1668481176435543
  0.6678185291512946 -0.0001268969242108  0.3337627666206671
  0.8348397306103450  0.1646210786873357  0.3335529209576416
  0.8344053756536719 -0.0010280041084323  0.5008686104946736
  0.0003624255606401 -0.0011073796345339  0.0010613940830626
  0.1667430045050590  0.1652710669573509  0.0014314537929705
  0.3329894312884375  0.3315079180183183  0.0029048507768643
  0.5001342293881668  0.4986370981780274  0.0053750832271390
  0.6673076246229045  0.6658199935892269  0.0019752641340023
  0.8339256827213061  0.8324757289187680  0.0009929667483421
  0.1667231486006137  0.9992541634002904  0.1674325619469963
  0.3333628384434668  0.1657007229455741  0.1678755035665911
  0.5003708706604859  0.3314949837200212  0.1678490401251789
  0.6684644115407992  0.4986087803618821  0.1663591476886483
  0.8341279222393554  0.6662085439305945  0.1668510989852540
  0.3329392417650541  0.0007331962496047  0.3336905792945229
  0.5003533852842255  0.1656898916296339  0.3336821253531882
  0.6677371162857104  0.3280074126569694  0.3302112379910365
  0.8415797615892353  0.4990479876704109  0.3277917289628622
  0.5001264074108195  0.0032040444916482  0.5008030919831961
  0.6684968492681814  0.1641374434677155  0.5007996801583152
  0.8416343591671218  0.3256068743875611  0.5011299524061285
  0.6673387105978338 -0.0002768103619389  0.6680248906019000
  0.8342087055696983  0.1646566957112272  0.6683651645630084
  0.8339644664514574 -0.0012256103864058  0.8346744285779139
  0.0004102848106192  0.3316989092821054  0.0011296138018877
  0.1657249582633273  0.4988549607324170  0.0026090167816174
  0.3330720928325105  0.6663534498053454  0.0020868847057588
  0.5001309774708798  0.8328846333796538  0.0011307829040498
  0.0007238391422648  0.1652640483389082  0.1674579469967856
  0.1672005296218367  0.3318726053911769  0.1679132108130467
  0.3330083329146414  0.4988553781800025  0.1678989682627604
  0.5000654721463902  0.6669665460291675  0.1664004162311164
  0.6676034064051298  0.8327283347117472  0.1668587122207366
  0.0003781512755557 -0.0010357634352180  0.3338766858705930
  0.1671757580298791  0.1657259711387564  0.3340713170674884
  0.3337995877107592  0.3323110296379851  0.3345258355725315
  0.5003749092047461  0.4988951971477702  0.3307725862809970
  0.6671948429026501  0.6658099806750222  0.3326401214399844
  0.8339182575102252  0.8325194348703300  0.3337583434356988
  0.1656901958145541  0.0004102081770740  0.5010552708790745
  0.3330108359814324  0.1656963418687172  0.5010772782740208
  0.5004209258828041  0.3285754138146478  0.5010827821040323
  0.6994033723573142  0.4798467264619715  0.4821047107717468
  0.8371732207783158  0.6663283404871483  0.5005775403149409
  0.3330670828434971 -0.0001411233566208  0.6685742336454480
  0.5001331274566335  0.1641548108937751  0.6691567748557263
  0.6672971277668620  0.3304155265829345  0.6679103638349686
  0.8372505609507437  0.4984396746970538  0.6684411791549368
  0.5001524808289280 -0.0010425317448634  0.8350698017737813
  0.6677000246376280  0.1646403467927705  0.8348833947176779
  0.8339574982166955  0.3315820091258124  0.8346401168809311
  0.0002858464703198  0.6659658604682785  0.0010459830152683
  0.1666200389894678  0.8326040492322463  0.0009761501673632
  0.0018693689597563  0.4988604545441536  0.1664101952238958
  0.1661274617716129  0.6662099219565849  0.1668877142356260
  0.3328318937061349  0.8333367477432543  0.1668584383151914
  0.0022239822686909  0.3315186155402715  0.3336793471889429
  0.1671423999346990  0.4989057133427102  0.3336762050042386
  0.3294603342620611  0.6662464468633371  0.3302552774991314
  0.5004395120051022  0.8401274357743039  0.3278195941013983
  0.0019002175358689  0.1642355319897122  0.5010611567826864
  0.1671711057050533  0.3315112536138855  0.5010631511398184
  0.3300462065958322  0.4989350756423319  0.5010913054258840
  0.4812476419366269  0.6979091703956551  0.4821802222109302
  0.6677672390075724  0.8357778543803038  0.5005966478457469
  0.0003275300395031  0.9988583359884945  0.6681880016863442
  0.1661600041859580  0.1646910712184257  0.6684178860423918
  0.3295641648195901  0.3280420291607574  0.6684076454945919
  0.4815269711687343  0.4799429158393848  0.7000071736930226
  0.6734242317729237  0.6719778235615619  0.6741141462485175
  0.8350706565321637  0.8335795930222298  0.6679380456628244
  0.1666574267697313 -0.0011990556108828  0.8348131513115702
  0.3328784330246048  0.1646696649780995  0.8355291579345466
  0.5005341463710828  0.3256121019114573  0.8422791065437126
  0.6677834849208149  0.4984361174751381  0.8379473829811624
  0.8350519344706502  0.6657226123433891  0.8357875340813623
  0.0002445782896442  0.8326489042128533  0.1673425959433237
  0.0012606582649732  0.6664055796193081  0.3337688768324781
  0.1660651263745002  0.8333638772319616  0.3335640417628918
  0.0046800631710552  0.4986661726890787  0.5008089879816059
  0.1655883158348868  0.6670058392078962  0.5007879286181197
  0.3270169369609541  0.8401558936161955  0.5012056640376245
  0.0013313406657954  0.3315861744914342  0.6685508860309390
  0.1656523195162897  0.4986254101812881  0.6691770516689400
  0.3318592307481920  0.6657577605263655  0.6679527298743640
  0.4998873847378610  0.8357623156526319  0.6684601456922207
  0.0002748028659875  0.1651653503780496  0.8348414304440724
  0.1661407324841959  0.3313924248334734  0.8355331781251079
  0.3271697985565336  0.4990070285238122  0.8423049732966228
  0.4999230819785194  0.6662981365628566  0.8379194251107176
  0.6672286574246760  0.8335731179696789  0.8358160158893821
  0.0004045121286837  0.8329295864627234  0.5008517868797575
  0.0011990939439195  0.6658408240308922  0.6680299943622039
  0.1661183827114886  0.8327068827007333  0.6684070419864651
  0.0004525858948668  0.4986636501325295  0.8350878961470172
  0.1661288279395216  0.6661570183445162  0.8349287924133730
  0.3330695439797114  0.8324451420028649  0.8346701136161848
  0.0002802648712520  0.8324569242444372  0.8346649465217693
  0.5577462553932678  0.5562898057183695  0.5582708483040212
  0.8339657686967479  0.1654595546584032  0.1677012132058086
  0.0007893620840125  0.3322142186691091  0.1677721671940291
  0.0007925932668794  0.1655184936112863  0.3344592235298527
  0.5006278663384101  0.1658902026692251  0.1681335710542208
  0.6675935055214669  0.3317952055051452  0.1674236068648882
  0.8349576897888276  0.4988200868152816  0.1665710476490516
  0.0001423859081667  0.6656202085939612  0.1676434566506548
  0.6676084224096576  0.1651972609369253  0.3340263095888180
  0.8345692603833446  0.3327620195563373  0.3349868985316161
  0.0028438850359511  0.4989680572385730  0.3334496475486803
  0.8350183683723392  0.1643659524366259  0.5010611823750057
  0.0028621277852286  0.3312574536023167  0.5011808047280875
  0.0001787007384242  0.1654075826952308  0.6678932302962216
  0.1672220407326649  0.1656966930489518  0.1679439358487296
  0.3341066994320618  0.3325756020095141  0.1688001269231479
  0.5008228275352165  0.4993107167787072  0.1686988547181176
  0.6670114390564986  0.6655299734671397  0.1681011468462047
  0.8334383306859503  0.8319844216545124  0.1678220114399238
  0.0003006152933031 -0.0011600950461721  0.1676912655047062
  0.3340848575649282  0.1665412823894401  0.3348003794628585
  0.5013816900726091  0.3332869732403983  0.3355101405906280
  0.6698446480271693  0.4976443427348013  0.3313947377996225
  0.8332644621620140  0.6646713521939902  0.3352394118622906
 -0.0000309226681804  0.8322402251020987  0.3344203794398115
  0.5008561083664762  0.1664560298255442  0.5015148775666073
  0.6698558179836811  0.3291469089529991  0.4997992755828183
  0.8448151214378631  0.4980110658837743  0.5001809610323484
  0.0012633771017735  0.6660463390966013  0.5010327213419421
  0.6670724355922143  0.1658172987060948  0.6677637296844692
  0.8333245902629892  0.3330430516524295  0.6668288059090524
  0.0013006927693979  0.4987929236596473  0.6682228645895273
  0.8334783380473931  0.1655655198072362  0.8342311447942500
  0.0000166515885086  0.3321848567248127  0.8344643992181650
  0.0003377646180172  0.1654731329272350  0.0010783054788662
  0.1674247369718013  0.4991016598791900  0.1681503400394726
  0.3332985187423243  0.6660308009495091  0.1674795177563876
  0.5002799235417277  0.8334597790493328  0.1665948403181649
  0.6671108512516305 -0.0013354304070155  0.1676267830403925
  0.1680662430694355  0.3325743019544182  0.3348054923813690
  0.3348032986993567  0.4998618680697388  0.3355378306473252
  0.4990871723086772  0.6683751839883501  0.3314457081128400
  0.6661059899185043  0.8318382369477689  0.3352602002459790
  0.8337160163892816 -0.0014705046870454  0.3344057568932584
  0.1674461423045192  0.1659293481206484  0.5013728434333393
  0.3348501873583676  0.3333279677713605  0.5020736123507322
  0.6606843303230786  0.6592292153554604  0.5014523987464836
  0.8323350853824990  0.8308645380372156  0.5011292852148427
  0.0001154595153378 -0.0013569307551778  0.5011481560108622
  0.3333578043403250  0.1652222094919598  0.6683127851335019
  0.4991980314932726  0.3292003794280889  0.6705075149559400
  0.6606188906048024  0.4992520661661370  0.6612547234857198
  0.8336261416457156  0.6646454754266893  0.6668644862187857
  0.0000538871309326  0.8319971178061317  0.6676696645994286
  0.5004081595682769  0.1643661536434722  0.8356725454013699
  0.6661668705612208  0.3330290277103031  0.8340142099727665
  0.8323357814953193  0.4988948093220879  0.8330442012550296
  0.0000412983726900  0.6653846607072692  0.8342497553848451
  0.6671322719807272  0.1653743515895666  0.0009113162215401
  0.8337408421880629  0.3321827715014311  0.0007508658715928
  0.0001103462510064  0.4988837067900563  0.0008634017292468
  0.1669348972311450  0.8324458139492059  0.1677221827391938
  0.3336977206432667  0.9992545086914637  0.1677604404337792
  0.1666535592247523  0.6660782093604342  0.3340636748505942
  0.3342352029579085  0.8330759608278877  0.3350141586286398
  0.5004619586010457  0.0013760446967734  0.3334565324756556
  0.1679642831449057  0.4993237993234018  0.5015206994647980
  0.3305663566144470  0.6683821214041618  0.4998507535876754
  0.4994443864387063  0.8433201440134439  0.5002062533635662
  0.6675815866975398 -0.0001934513115123  0.5010416379816496
  0.1667257619058048  0.3318365890981393  0.6682962856494125
  0.3307405317685654  0.4976548385779536  0.6705411190283719
  0.5007150283164136  0.6591830585626844  0.6612296125133200
  0.6661411526148783  0.8321270922011338  0.6668828891759335
  0.8334907107738936 -0.0014394703163299  0.6676710810499411
  0.1669897444054407  0.1654993564922399  0.8346995139942551
  0.3343473645618654  0.3327933718627452  0.8352506247718227
  0.4995075387659776  0.4980130350949476  0.8454466916892980
  0.6661493949291706  0.6646500517599765  0.8343239344167599
  0.8331044653381654  0.8315617167049435  0.8338424456489660
  0.0001582714368768  0.9986619733180213  0.8343845244709585
  0.3337351498969752  0.1655207039479997  0.0014962231741334
  0.5004865508182803  0.3312670561366857  0.0035657966806187
  0.6675291041273289  0.4987951487652318  0.0020189872263984
  0.8334442367813815  0.6653954249407078  0.0008114185273038
  0.0001344119526772  0.8321188073711898  0.0009058849689899
  0.1669793464389044 -0.0007334729238789  0.3344576486817388
  0.1657906232214162  0.8335016095436394  0.5010833436892440
  0.3327217832386533  0.0013729326584905  0.5011994299749646
  0.1672948444211370  0.6655237868741716  0.6677882446253394
  0.3345300720903169  0.8317964574868552  0.6668691264997915
  0.5003289664938759 -0.0002120991837804  0.6682275800580489
  0.1658944177655712  0.4988323638790108  0.8357221434203496
  0.3345751820175938  0.6646212966322949  0.8340268457764820
  0.5004189359109477  0.8308052473420854  0.8330545160508962
  0.6669118526005695 -0.0014645075949315  0.8342273069855073
  0.1670441155029122  0.3322197137042789  0.0015196477871423
  0.3327627752523798  0.4989591357633990  0.0035888385078100
  0.5003108270148854  0.6660189071207158  0.0020476921314435
  0.6668893374866895  0.8319726501508339  0.0008212823316079
  0.8336307062013392 -0.0013678495011627  0.0008863521662632
  0.1669012524016127 -0.0013178310731797  0.6678842784394141
  0.1670730372506019  0.8319352710877288  0.8342247565860850
  0.3337014733148294  0.9984874741347709  0.8344514782075939
  0.1668988656989967  0.6655932547846283  0.0009460942766276
  0.3336678689032330  0.8321743035685496  0.0007690280294507
  0.5003890196345796  0.9985843743753204  0.0008429895497975
  0.1669473553880345 -0.0011728184756449  0.0010614765785423
 
  0.00000000E+00  0.00000000E+00  0.00000000E+00
  0.00000000E+00  0.00000000E+00  0.00000000E+00
  0.00000000E+00  0.00000000E+00  0.00000000E+00
  0.00000000E+00  0.00000000E+00  0.00000000E+00
  0.00000000E+00  0.00000000E+00  0.00000000E+00
  0.00000000E+00  0.00000000E+00  0.00000000E+00
  0.00000000E+00  0.00000000E+00  0.00000000E+00
  0.00000000E+00  0.00000000E+00  0.00000000E+00
  0.00000000E+00  0.00000000E+00  0.00000000E+00
  0.00000000E+00  0.00000000E+00  0.00000000E+00
  0.00000000E+00  0.00000000E+00  0.00000000E+00
  0.00000000E+00  0.00000000E+00  0.00000000E+00
  0.00000000E+00  0.00000000E+00  0.00000000E+00
  0.00000000E+00  0.00000000E+00  0.00000000E+00
  0.00000000E+00  0.00000000E+00  0.00000000E+00
  0.00000000E+00  0.00000000E+00  0.00000000E+00
  0.00000000E+00  0.00000000E+00  0.00000000E+00
  0.00000000E+00  0.00000000E+00  0.00000000E+00
  0.00000000E+00  0.00000000E+00  0.00000000E+00
  0.00000000E+00  0.00000000E+00  0.00000000E+00
  0.00000000E+00  0.00000000E+00  0.00000000E+00
  0.00000000E+00  0.00000000E+00  0.00000000E+00
  0.00000000E+00  0.00000000E+00  0.00000000E+00
  0.00000000E+00  0.00000000E+00  0.00000000E+00
  0.00000000E+00  0.00000000E+00  0.00000000E+00
  0.00000000E+00  0.00000000E+00  0.00000000E+00
  0.00000000E+00  0.00000000E+00  0.00000000E+00
  0.00000000E+00  0.00000000E+00  0.00000000E+00
  0.00000000E+00  0.00000000E+00  0.00000000E+00
  0.00000000E+00  0.00000000E+00  0.00000000E+00
  0.00000000E+00  0.00000000E+00  0.00000000E+00
  0.00000000E+00  0.00000000E+00  0.00000000E+00
  0.00000000E+00  0.00000000E+00  0.00000000E+00
  0.00000000E+00  0.00000000E+00  0.00000000E+00
  0.00000000E+00  0.00000000E+00  0.00000000E+00
  0.00000000E+00  0.00000000E+00  0.00000000E+00
  0.00000000E+00  0.00000000E+00  0.00000000E+00
  0.00000000E+00  0.00000000E+00  0.00000000E+00
  0.00000000E+00  0.00000000E+00  0.00000000E+00
  0.00000000E+00  0.00000000E+00  0.00000000E+00
  0.00000000E+00  0.00000000E+00  0.00000000E+00
  0.00000000E+00  0.00000000E+00  0.00000000E+00
  0.00000000E+00  0.00000000E+00  0.00000000E+00
  0.00000000E+00  0.00000000E+00  0.00000000E+00
  0.00000000E+00  0.00000000E+00  0.00000000E+00
  0.00000000E+00  0.00000000E+00  0.00000000E+00
  0.00000000E+00  0.00000000E+00  0.00000000E+00
  0.00000000E+00  0.00000000E+00  0.00000000E+00
  0.00000000E+00  0.00000000E+00  0.00000000E+00
  0.00000000E+00  0.00000000E+00  0.00000000E+00
  0.00000000E+00  0.00000000E+00  0.00000000E+00
  0.00000000E+00  0.00000000E+00  0.00000000E+00
  0.00000000E+00  0.00000000E+00  0.00000000E+00
  0.00000000E+00  0.00000000E+00  0.00000000E+00
  0.00000000E+00  0.00000000E+00  0.00000000E+00
  0.00000000E+00  0.00000000E+00  0.00000000E+00
  0.00000000E+00  0.00000000E+00  0.00000000E+00
  0.00000000E+00  0.00000000E+00  0.00000000E+00
  0.00000000E+00  0.00000000E+00  0.00000000E+00
  0.00000000E+00  0.00000000E+00  0.00000000E+00
  0.00000000E+00  0.00000000E+00  0.00000000E+00
  0.00000000E+00  0.00000000E+00  0.00000000E+00
  0.00000000E+00  0.00000000E+00  0.00000000E+00
  0.00000000E+00  0.00000000E+00  0.00000000E+00
  0.00000000E+00  0.00000000E+00  0.00000000E+00
  0.00000000E+00  0.00000000E+00  0.00000000E+00
  0.00000000E+00  0.00000000E+00  0.00000000E+00
  0.00000000E+00  0.00000000E+00  0.00000000E+00
  0.00000000E+00  0.00000000E+00  0.00000000E+00
  0.00000000E+00  0.00000000E+00  0.00000000E+00
  0.00000000E+00  0.00000000E+00  0.00000000E+00
  0.00000000E+00  0.00000000E+00  0.00000000E+00
  0.00000000E+00  0.00000000E+00  0.00000000E+00
  0.00000000E+00  0.00000000E+00  0.00000000E+00
  0.00000000E+00  0.00000000E+00  0.00000000E+00
  0.00000000E+00  0.00000000E+00  0.00000000E+00
  0.00000000E+00  0.00000000E+00  0.00000000E+00
  0.00000000E+00  0.00000000E+00  0.00000000E+00
  0.00000000E+00  0.00000000E+00  0.00000000E+00
  0.00000000E+00  0.00000000E+00  0.00000000E+00
  0.00000000E+00  0.00000000E+00  0.00000000E+00
  0.00000000E+00  0.00000000E+00  0.00000000E+00
  0.00000000E+00  0.00000000E+00  0.00000000E+00
  0.00000000E+00  0.00000000E+00  0.00000000E+00
  0.00000000E+00  0.00000000E+00  0.00000000E+00
  0.00000000E+00  0.00000000E+00  0.00000000E+00
  0.00000000E+00  0.00000000E+00  0.00000000E+00
  0.00000000E+00  0.00000000E+00  0.00000000E+00
  0.00000000E+00  0.00000000E+00  0.00000000E+00
  0.00000000E+00  0.00000000E+00  0.00000000E+00
  0.00000000E+00  0.00000000E+00  0.00000000E+00
  0.00000000E+00  0.00000000E+00  0.00000000E+00
  0.00000000E+00  0.00000000E+00  0.00000000E+00
  0.00000000E+00  0.00000000E+00  0.00000000E+00
  0.00000000E+00  0.00000000E+00  0.00000000E+00
  0.00000000E+00  0.00000000E+00  0.00000000E+00
  0.00000000E+00  0.00000000E+00  0.00000000E+00
  0.00000000E+00  0.00000000E+00  0.00000000E+00
  0.00000000E+00  0.00000000E+00  0.00000000E+00
  0.00000000E+00  0.00000000E+00  0.00000000E+00
  0.00000000E+00  0.00000000E+00  0.00000000E+00
  0.00000000E+00  0.00000000E+00  0.00000000E+00
  0.00000000E+00  0.00000000E+00  0.00000000E+00
  0.00000000E+00  0.00000000E+00  0.00000000E+00
  0.00000000E+00  0.00000000E+00  0.00000000E+00
  0.00000000E+00  0.00000000E+00  0.00000000E+00
  0.00000000E+00  0.00000000E+00  0.00000000E+00
  0.00000000E+00  0.00000000E+00  0.00000000E+00
  0.00000000E+00  0.00000000E+00  0.00000000E+00
  0.00000000E+00  0.00000000E+00  0.00000000E+00
  0.00000000E+00  0.00000000E+00  0.00000000E+00
  0.00000000E+00  0.00000000E+00  0.00000000E+00
  0.00000000E+00  0.00000000E+00  0.00000000E+00
  0.00000000E+00  0.00000000E+00  0.00000000E+00
  0.00000000E+00  0.00000000E+00  0.00000000E+00
  0.00000000E+00  0.00000000E+00  0.00000000E+00
  0.00000000E+00  0.00000000E+00  0.00000000E+00
  0.00000000E+00  0.00000000E+00  0.00000000E+00
  0.00000000E+00  0.00000000E+00  0.00000000E+00
  0.00000000E+00  0.00000000E+00  0.00000000E+00
  0.00000000E+00  0.00000000E+00  0.00000000E+00
  0.00000000E+00  0.00000000E+00  0.00000000E+00
  0.00000000E+00  0.00000000E+00  0.00000000E+00
  0.00000000E+00  0.00000000E+00  0.00000000E+00
  0.00000000E+00  0.00000000E+00  0.00000000E+00
  0.00000000E+00  0.00000000E+00  0.00000000E+00
  0.00000000E+00  0.00000000E+00  0.00000000E+00
  0.00000000E+00  0.00000000E+00  0.00000000E+00
  0.00000000E+00  0.00000000E+00  0.00000000E+00
  0.00000000E+00  0.00000000E+00  0.00000000E+00
  0.00000000E+00  0.00000000E+00  0.00000000E+00
  0.00000000E+00  0.00000000E+00  0.00000000E+00
  0.00000000E+00  0.00000000E+00  0.00000000E+00
  0.00000000E+00  0.00000000E+00  0.00000000E+00
  0.00000000E+00  0.00000000E+00  0.00000000E+00
  0.00000000E+00  0.00000000E+00  0.00000000E+00
  0.00000000E+00  0.00000000E+00  0.00000000E+00
  0.00000000E+00  0.00000000E+00  0.00000000E+00
  0.00000000E+00  0.00000000E+00  0.00000000E+00
  0.00000000E+00  0.00000000E+00  0.00000000E+00
  0.00000000E+00  0.00000000E+00  0.00000000E+00
  0.00000000E+00  0.00000000E+00  0.00000000E+00
  0.00000000E+00  0.00000000E+00  0.00000000E+00
  0.00000000E+00  0.00000000E+00  0.00000000E+00
  0.00000000E+00  0.00000000E+00  0.00000000E+00
  0.00000000E+00  0.00000000E+00  0.00000000E+00
  0.00000000E+00  0.00000000E+00  0.00000000E+00
  0.00000000E+00  0.00000000E+00  0.00000000E+00
  0.00000000E+00  0.00000000E+00  0.00000000E+00
  0.00000000E+00  0.00000000E+00  0.00000000E+00
  0.00000000E+00  0.00000000E+00  0.00000000E+00
  0.00000000E+00  0.00000000E+00  0.00000000E+00
  0.00000000E+00  0.00000000E+00  0.00000000E+00
  0.00000000E+00  0.00000000E+00  0.00000000E+00
  0.00000000E+00  0.00000000E+00  0.00000000E+00
  0.00000000E+00  0.00000000E+00  0.00000000E+00
  0.00000000E+00  0.00000000E+00  0.00000000E+00
  0.00000000E+00  0.00000000E+00  0.00000000E+00
  0.00000000E+00  0.00000000E+00  0.00000000E+00
  0.00000000E+00  0.00000000E+00  0.00000000E+00
  0.00000000E+00  0.00000000E+00  0.00000000E+00
  0.00000000E+00  0.00000000E+00  0.00000000E+00
  0.00000000E+00  0.00000000E+00  0.00000000E+00
  0.00000000E+00  0.00000000E+00  0.00000000E+00
  0.00000000E+00  0.00000000E+00  0.00000000E+00
  0.00000000E+00  0.00000000E+00  0.00000000E+00
  0.00000000E+00  0.00000000E+00  0.00000000E+00
  0.00000000E+00  0.00000000E+00  0.00000000E+00
  0.00000000E+00  0.00000000E+00  0.00000000E+00
  0.00000000E+00  0.00000000E+00  0.00000000E+00
  0.00000000E+00  0.00000000E+00  0.00000000E+00
  0.00000000E+00  0.00000000E+00  0.00000000E+00
  0.00000000E+00  0.00000000E+00  0.00000000E+00
  0.00000000E+00  0.00000000E+00  0.00000000E+00
  0.00000000E+00  0.00000000E+00  0.00000000E+00
  0.00000000E+00  0.00000000E+00  0.00000000E+00
  0.00000000E+00  0.00000000E+00  0.00000000E+00
  0.00000000E+00  0.00000000E+00  0.00000000E+00
  0.00000000E+00  0.00000000E+00  0.00000000E+00
  0.00000000E+00  0.00000000E+00  0.00000000E+00
  0.00000000E+00  0.00000000E+00  0.00000000E+00
  0.00000000E+00  0.00000000E+00  0.00000000E+00
  0.00000000E+00  0.00000000E+00  0.00000000E+00
  0.00000000E+00  0.00000000E+00  0.00000000E+00
  0.00000000E+00  0.00000000E+00  0.00000000E+00
  0.00000000E+00  0.00000000E+00  0.00000000E+00
  0.00000000E+00  0.00000000E+00  0.00000000E+00
  0.00000000E+00  0.00000000E+00  0.00000000E+00
  0.00000000E+00  0.00000000E+00  0.00000000E+00
  0.00000000E+00  0.00000000E+00  0.00000000E+00
  0.00000000E+00  0.00000000E+00  0.00000000E+00
  0.00000000E+00  0.00000000E+00  0.00000000E+00
  0.00000000E+00  0.00000000E+00  0.00000000E+00
  0.00000000E+00  0.00000000E+00  0.00000000E+00
  0.00000000E+00  0.00000000E+00  0.00000000E+00
  0.00000000E+00  0.00000000E+00  0.00000000E+00
  0.00000000E+00  0.00000000E+00  0.00000000E+00
  0.00000000E+00  0.00000000E+00  0.00000000E+00
  0.00000000E+00  0.00000000E+00  0.00000000E+00
  0.00000000E+00  0.00000000E+00  0.00000000E+00
  0.00000000E+00  0.00000000E+00  0.00000000E+00
  0.00000000E+00  0.00000000E+00  0.00000000E+00
  0.00000000E+00  0.00000000E+00  0.00000000E+00
  0.00000000E+00  0.00000000E+00  0.00000000E+00
  0.00000000E+00  0.00000000E+00  0.00000000E+00
  0.00000000E+00  0.00000000E+00  0.00000000E+00
  0.00000000E+00  0.00000000E+00  0.00000000E+00
  0.00000000E+00  0.00000000E+00  0.00000000E+00
  0.00000000E+00  0.00000000E+00  0.00000000E+00
  0.00000000E+00  0.00000000E+00  0.00000000E+00
  0.00000000E+00  0.00000000E+00  0.00000000E+00
  0.00000000E+00  0.00000000E+00  0.00000000E+00
  0.00000000E+00  0.00000000E+00  0.00000000E+00
  0.00000000E+00  0.00000000E+00  0.00000000E+00
  0.00000000E+00  0.00000000E+00  0.00000000E+00
  0.00000000E+00  0.00000000E+00  0.00000000E+00
