-30.0% N(Distort)=1 ~[0.5,0.5,0.5]      
   1.00000000000000     
    12.5998379999999983    0.0000000000000004    0.0000000000000004
     0.0000000000000004   12.5998379999999983   -0.0000000000000004
    -0.0000000000000004   -0.0000000000000004   12.5998379999999983
   Mg   O 
   109   107
Direct
  0.6666692636377006 -0.0004116184029948  0.0001947391224670
  0.8332634199883604  0.1658567504237085  0.0002950691673821
  0.8330897911400436 -0.0004579477913957  0.1665719083880355
  0.3321996695152469 -0.0004153220081483  0.0001971738641997
  0.4994582975703985  0.1647483552470375 -0.0012467833402042
  0.6670584104204954  0.3321582377085205  0.9990615578415287
  0.8336536846780932  0.4993879257342894 -0.0000270364119976
  0.4992955707636737 -0.0002011709895547  0.1660269025133055
  0.6668672994999539  0.1653879681685345  0.1663390847705268
  0.8330918647033065  0.3322896706601122  0.1665720794827976
  0.6665111808997084  0.0006560429973036  0.3331084099314482
  0.8333276962192516  0.1653789877601388  0.3327878550329605
  0.8336166310211117 -0.0001986863737284  0.5003566157539817
  0.9994668713210668 -0.0004137587961575  0.0002260426945588
  0.1658174409126509  0.1659159628189688 -0.0000882648659906
  0.3319849362442562  0.3321047393821994 -0.0016390878449157
  0.4992085339019862  0.4993035610611261  0.9956081033915040
  0.6665494023522365  0.6666278149620450 -0.0009086185291297
  0.8331052123140538  0.8332210808688789  0.0002190142287327
  0.1657650946708974 -0.0005215066715097  0.1664175337396859
  0.3319161982661750  0.1653761113023554  0.1657746747047103
  0.4997024555694979  0.3262366443961869  0.1581345426764093
  0.6672760492541400  0.4990708558614839  0.1617391149043073
  0.8342729043757391  0.6665057377623859  0.1653531485818126
  0.3320844198292970  0.0007052466910276  0.3326092078251268
  0.4991536259822608  0.1644068426803210  0.3316991993131437
  0.6664107285495123  0.3309267291471466  0.3332534056598810
  0.8378955167926607  0.4990819724116153  0.3323684011289159
  0.4992133223617490  0.0040426323503020  0.5004315729647920
  0.6679580967005103  0.1643749645906392  0.5004948373196655
  0.8415079580090432  0.3262231291866342  0.4999887711378505
  0.6670354178827544  0.0006956193403879  0.6675683261879457
  0.8338669414281912  0.1653661544607996  0.6677632639312601
  0.8332415150758057 -0.0004959904190379  0.8339077685993189
 -0.0005258771539219  0.3322965171094761  0.0002018307676123
  0.1645944283052651  0.4995617026981939 -0.0012774361543814
  0.3320570897920161  0.6671623924881732 -0.0009862206497864
  0.4992971488389544  0.8337578181621238 -0.0000555024555835
 -0.0006298634920649  0.1658625785510167  0.1664292488931385
  0.1652359856779252  0.3320130965287538  0.1657528238015712
  0.3259897083836321  0.4998078164771236  0.1580632679806902
  0.4989703425387990  0.6673737140786730  0.1616417697688596
  0.6663918596403953  0.8343654257061971  0.1653572145493716
 -0.0005474328740231 -0.0004362480345842  0.3329925914112331
  0.1652643438394842  0.1653649108287618  0.3327318698722432
  0.3288795784570189  0.3290604761201072  0.3329870091873159
  0.4814034003357954  0.4818941074375329  0.2978250720130082
  0.6727193195871843  0.6727460780973462  0.3268929669770201
  0.8342514899879913  0.8343435216565454  0.3332415219920329
  0.1646426447618793  0.0010124644781592  0.5002089584493000
  0.3313105433719549  0.1654029737523943  0.5002591045809337
  0.4988805509931462  0.3222330641447111  0.5007888575745992
  0.7017790842821354  0.4819180206167495  0.5181869566895724
  0.8379628393705629  0.6674085511041263  0.5006805867848798
  0.3319690201893748  0.0013987561469671  0.6676883821284243
  0.4993854347797964  0.1653988333484669  0.6683341451255587
  0.6666737347831891  0.3290605526182229  0.6707518123600585
  0.8415759691595173  0.4998080746494969  0.6736503971091808
  0.4994540186733125  0.0010076917117452  0.8350107000810152
  0.6669223501197131  0.1653720372065592  0.8343923739270304
  0.8339004124837780  0.3320114591971229  0.8344462321814748
 -0.0005193910187932  0.6667801208768196  0.0001831620371838
  0.1657535413768622  0.8333632197454732  0.0002902395191295
 -0.0003239715476462  0.4993877553390534  0.1660120277296105
  0.1652229117423749  0.6669815610294287  0.1662946312759784
  0.3321833593204528  0.8331874438846556  0.1665542800168095
  0.0005976831424801  0.3321731288694919  0.3326186746606666
  0.1642096841725533  0.4992694628428560  0.3316728681687867
  0.3306748242881313  0.6665101040367549  0.3332310463960362
  0.4989659761254088  0.8380025658940147  0.3323646885414471
  0.0009122313715255  0.1647280268666307  0.5002201975435702
  0.1652718673901416  0.3314093865035407  0.5002700428942930
  0.3220853371685601  0.4990371701865133  0.5007553649285036
  0.4818371944587419  0.7015733681535263  0.5179049681931890
  0.6672817356182956  0.8380112699791609  0.5006618701088207
  0.9994718302089585 -0.0004128078510689  0.6674937450691207
  0.1661207852604484  0.1662404818428299  0.6674042208753064
  0.3325120766918781  0.3326418663331397  0.6671466701364444
  0.4989121563605524  0.4990278690004317  0.6775607050633367
  0.6664335651945719  0.6665020340823199  0.6689777643300999
  0.8331083700810168  0.8332105622394300  0.6674843050197438
  0.1657899029337072 -0.0001044871467171  0.8339090884046132
  0.3322911676662723  0.1662455772362424  0.8335391134332528
  0.4993956641822791  0.3314243087964997  0.8343648807756794
  0.6680053259929526  0.4992626895942443  0.8354348332664742
  0.8333650766946463  0.6669918103520484  0.8344114205928899
 -0.0005727904491298  0.8331981078350869  0.1665558794030872
  0.0005436039787331  0.6666316906174168  0.3331185470976395
  0.1652488902381426  0.8334426207010496  0.3327781170307363
  0.0039952814610597  0.4993291198004434  0.5004511671390319
  0.1642474605732198  0.6680947459358806  0.5004878341006670
  0.3261279766621842  0.8415359864005540  0.4999643888977168
  0.0012913399321657  0.3320723148132396  0.6677025767703348
  0.1652960696160595  0.4995185719505236  0.6683197556339256
  0.3289545969292268  0.6668222766120020  0.6706909540107714
  0.4996789137604525  0.8415622552445775  0.6735117942991159
 -0.0002215441613010  0.1659038081192868  0.8338817354030985
  0.1661348188995493  0.3324119094717211  0.8335351730984633
  0.3313027169745129  0.4995318536943915  0.8343301620134240
  0.4991697114100736  0.6680871294685267  0.8353914722042890
  0.6668688627319047  0.8334600609973071  0.8343923508348858
 -0.0003089219800451  0.8337549186034984  0.5003655308569385
  0.0006118114808390  0.6671751246164468  0.6675786829343145
  0.1652463550252090  0.8340261315601426  0.6677478351641710
  0.0009451318452875  0.4995524714651469  0.8350255365816392
  0.1652805304236313  0.6670443081806430  0.8343563691531647
  0.3319165127951198  0.8340246115576118  0.8344132558635375
 -0.0006075729752597  0.8333664340892351  0.8339394074763051
  0.5572254266297287  0.5568667995243166  0.4423849942028593
  0.8323116729139627  0.1665424965887877  0.1673544124312997
 -0.0009668066122646  0.3330733029649738  0.1670686993727644
  0.9991927023519769  0.1662428758074275  0.3335566226777949
  0.4994706160253512  0.1656772029788068  0.1661719158371252
  0.6647229785168239  0.3343265827448599  0.1677913737103633
  0.8309365658845991  0.4997212001514412  0.1687092576259801
 -0.0008866575082597  0.6659855908129372  0.1672983679825758
  0.6657110172495445  0.1671068734570536  0.3339458182124277
  0.8318669482215076  0.3343474361626122  0.3349330127893430
  0.0006398149201786  0.4995659614395632  0.3328673193489983
  0.8334809743205105  0.1656640167172692  0.5001652484370739
  0.0018804704538125  0.3318553892660002  0.5000567875337810
 -0.0003102251014932  0.1663609670604723  0.6666928186921774
  0.1663273946510405  0.1664272044080497  0.1668230584236481
  0.3341677754275622  0.3343069461776456  0.1667062454168436
  0.4990690976168140  0.4991889112923442  0.1541923519170210
  0.6646658477273329  0.6647838978180957  0.1675358990762835
  0.8319032534588687  0.8320128966616549  0.1677436938018868
  0.9992173529622194 -0.0006837571483355  0.1670562350567868
  0.3328757661711835  0.1664693944033279  0.3333709977758648
  0.4983694943958296  0.3328353519726066  0.3340732914984404
  0.6572458890624413  0.4991219554272643  0.3424038121264411
  0.8320602204059649  0.6647820935297780  0.3349890518519364
 -0.0008988259375314  0.8324594300662408  0.3337649326423578
  0.4997760182028238  0.1654278719488184  0.4998697882160886
  0.6656281819931498  0.3328162908658955  0.5012925927210579
  0.8454614223929114  0.4992316424018874  0.5005699438522109
  0.0006525126974675  0.6669088036624654  0.5001885800489824
  0.6662931119015290  0.1664583567895394  0.6667682964505912
  0.8329609534886191  0.3342976685711203  0.6655156868382140
  0.0019167017734214  0.4997322356219155  0.6678981842603549
  0.8328524933703332  0.1664227126121212  0.8333563694389784
 -0.0002743108463688  0.3330757885440955  0.8334058619631860
 -0.0006125986191309  0.1662288780191924  0.0003192483729306
  0.1654850693523185  0.4995997810313980  0.1661134238120750
  0.3342294019983227  0.6648018465139515  0.1677765207163218
  0.4995868776353242  0.8310005587070467  0.1687319931765734
  0.6658573395000839 -0.0007739094361983  0.1673264914824934
  0.1663083122737180  0.3329696791768673  0.3333667081957773
  0.3323798881619104  0.4985105330945074  0.3339691876171581
  0.4989839024236907  0.6568911972258875  0.3425692783215275
  0.6646240595653119  0.8320885080310555  0.3349864321070818
  0.8323154063492373 -0.0007930125670301  0.3337725508619440
  0.1666783083685285  0.1667733500456845  0.4999169565493672
  0.3355580804408532  0.3356986239123900  0.4994413443413105
  0.6569879709954131  0.6569475261471429  0.5006283731702018
  0.8308977401076025  0.8310184449867358  0.5000416271022666
  0.9991067226235397 -0.0007826258723192  0.5001133232488595
  0.3334214348518202  0.1674537427231740  0.6662025148627962
  0.5001979671252701  0.3356769379687211  0.6640919808713840
  0.6656660894465256  0.4985094807770080  0.6672090506774029
  0.8318715779350215  0.6648257757561562  0.6654102353088058
 -0.0009667118654421  0.8327157364489051  0.6666573454495287
  0.4997389943684117  0.1667772849473818  0.8329609308992834
  0.6663108984861978  0.3329672528326618  0.8333391964876202
  0.8335413491461439  0.4995915712698863  0.8341593172376507
 -0.0007991271878027  0.6662312059570010  0.8334612921266650
  0.6661141690922393  0.1662496179181115  0.0004513932528446
  0.8326020021466507  0.3330778023129942  0.0006311575616973
 -0.0008695627087988  0.4996462667127341  0.0005197073266129
  0.1664462661869868  0.8324162630059350  0.1673415316384802
  0.3329833995546990 -0.0008475801686813  0.1670698146073246
  0.1669110204897101  0.6658488959418973  0.3339129154000169
  0.3342569405314359  0.8319250606742018  0.3349055192673874
  0.4994504565586255  0.0007556227653921  0.3328634014280550
  0.1653108380262398  0.4998972727156998  0.4998671413593672
  0.3325843154510283  0.6657606423680882  0.5012590152016301
  0.4991143796454605  0.8453566833450866  0.5005111609301488
  0.6667469876974763  0.0007409918665441  0.5001474335921314
  0.1673280116345530  0.3335405669254931  0.6662098398736203
  0.3355430064393145  0.5003421799011605  0.6640618664233512
  0.4984140005558860  0.6657363044757962  0.6670973933790428
  0.6647274948638003  0.8319346539709306  0.6653791812436282
  0.8325645020392810 -0.0008489988162047  0.6666471432842951
  0.1664120973847565  0.1664966729085125  0.8332975689193655
  0.3334319417087871  0.3335501369122710  0.8323190790214264
  0.4997601662054622  0.4998862937782131  0.8343161048134888
  0.6657567102287324  0.6658585978394004  0.8327202914251701
  0.8323304161273096  0.8324300326794715  0.8331951451275591
  0.9993654650044508 -0.0005207707295206  0.8335729608565184
  0.3329900078963009  0.1663790318582150 -0.0000232117111424
  0.4996061456145037  0.3318540172556737  0.9977409974780855
  0.6667915487349794  0.4995502417197637 -0.0010095334900709
  0.8323749670575038  0.6659947463087651  0.0005154920814760
 -0.0007825800538235  0.8327164595526102  0.0004533925058204
  0.1661786068069109 -0.0006997269512375  0.3335364124736049
  0.1655397705456698  0.8336220294685196  0.5001384426872960
  0.3317765267139581  0.0019746439582714  0.5000374212471277
  0.1663478517482761  0.6664462613365068  0.6667658961266605
  0.3341595760965614  0.8330864733328360  0.6655062404914933
  0.4996152795998576  0.0019748238976741  0.6678677584955461
  0.1666928865505819  0.4998595712658374  0.8329417505353243
  0.3328785859081094  0.6664415322777077  0.8332906924193051
  0.4994895068343019  0.8336290566062120  0.8341040167539356
  0.6661074873389720 -0.0007009145344973  0.8334578601430223
  0.1662608651288262  0.3331027599708886 -0.0000355718973840
  0.3317341699745603  0.4997274257907419 -0.0022936902116470
  0.4994464409548425  0.6668970438260102 -0.0010291789794252
  0.6658621766063016  0.8324697026949731  0.0005143939840959
  0.8326013907663908 -0.0006767837356748  0.0004427471135031
  0.1662591160828782 -0.0001739961013515  0.6667031635669172
  0.1663190379338456  0.8329922037530951  0.8333516621981177
  0.3329687196943129 -0.0001640920571731  0.8334209445590366
  0.1661569245121913  0.6662326508659188  0.0004268668776397
  0.3329812176364877  0.8326987381313251  0.0006153768899180
  0.4995401324085886 -0.0007541410434658  0.0005435133179747
  0.1661208294749580 -0.0005242070536340  0.0003227174224589
 
  0.00000000E+00  0.00000000E+00  0.00000000E+00
  0.00000000E+00  0.00000000E+00  0.00000000E+00
  0.00000000E+00  0.00000000E+00  0.00000000E+00
  0.00000000E+00  0.00000000E+00  0.00000000E+00
  0.00000000E+00  0.00000000E+00  0.00000000E+00
  0.00000000E+00  0.00000000E+00  0.00000000E+00
  0.00000000E+00  0.00000000E+00  0.00000000E+00
  0.00000000E+00  0.00000000E+00  0.00000000E+00
  0.00000000E+00  0.00000000E+00  0.00000000E+00
  0.00000000E+00  0.00000000E+00  0.00000000E+00
  0.00000000E+00  0.00000000E+00  0.00000000E+00
  0.00000000E+00  0.00000000E+00  0.00000000E+00
  0.00000000E+00  0.00000000E+00  0.00000000E+00
  0.00000000E+00  0.00000000E+00  0.00000000E+00
  0.00000000E+00  0.00000000E+00  0.00000000E+00
  0.00000000E+00  0.00000000E+00  0.00000000E+00
  0.00000000E+00  0.00000000E+00  0.00000000E+00
  0.00000000E+00  0.00000000E+00  0.00000000E+00
  0.00000000E+00  0.00000000E+00  0.00000000E+00
  0.00000000E+00  0.00000000E+00  0.00000000E+00
  0.00000000E+00  0.00000000E+00  0.00000000E+00
  0.00000000E+00  0.00000000E+00  0.00000000E+00
  0.00000000E+00  0.00000000E+00  0.00000000E+00
  0.00000000E+00  0.00000000E+00  0.00000000E+00
  0.00000000E+00  0.00000000E+00  0.00000000E+00
  0.00000000E+00  0.00000000E+00  0.00000000E+00
  0.00000000E+00  0.00000000E+00  0.00000000E+00
  0.00000000E+00  0.00000000E+00  0.00000000E+00
  0.00000000E+00  0.00000000E+00  0.00000000E+00
  0.00000000E+00  0.00000000E+00  0.00000000E+00
  0.00000000E+00  0.00000000E+00  0.00000000E+00
  0.00000000E+00  0.00000000E+00  0.00000000E+00
  0.00000000E+00  0.00000000E+00  0.00000000E+00
  0.00000000E+00  0.00000000E+00  0.00000000E+00
  0.00000000E+00  0.00000000E+00  0.00000000E+00
  0.00000000E+00  0.00000000E+00  0.00000000E+00
  0.00000000E+00  0.00000000E+00  0.00000000E+00
  0.00000000E+00  0.00000000E+00  0.00000000E+00
  0.00000000E+00  0.00000000E+00  0.00000000E+00
  0.00000000E+00  0.00000000E+00  0.00000000E+00
  0.00000000E+00  0.00000000E+00  0.00000000E+00
  0.00000000E+00  0.00000000E+00  0.00000000E+00
  0.00000000E+00  0.00000000E+00  0.00000000E+00
  0.00000000E+00  0.00000000E+00  0.00000000E+00
  0.00000000E+00  0.00000000E+00  0.00000000E+00
  0.00000000E+00  0.00000000E+00  0.00000000E+00
  0.00000000E+00  0.00000000E+00  0.00000000E+00
  0.00000000E+00  0.00000000E+00  0.00000000E+00
  0.00000000E+00  0.00000000E+00  0.00000000E+00
  0.00000000E+00  0.00000000E+00  0.00000000E+00
  0.00000000E+00  0.00000000E+00  0.00000000E+00
  0.00000000E+00  0.00000000E+00  0.00000000E+00
  0.00000000E+00  0.00000000E+00  0.00000000E+00
  0.00000000E+00  0.00000000E+00  0.00000000E+00
  0.00000000E+00  0.00000000E+00  0.00000000E+00
  0.00000000E+00  0.00000000E+00  0.00000000E+00
  0.00000000E+00  0.00000000E+00  0.00000000E+00
  0.00000000E+00  0.00000000E+00  0.00000000E+00
  0.00000000E+00  0.00000000E+00  0.00000000E+00
  0.00000000E+00  0.00000000E+00  0.00000000E+00
  0.00000000E+00  0.00000000E+00  0.00000000E+00
  0.00000000E+00  0.00000000E+00  0.00000000E+00
  0.00000000E+00  0.00000000E+00  0.00000000E+00
  0.00000000E+00  0.00000000E+00  0.00000000E+00
  0.00000000E+00  0.00000000E+00  0.00000000E+00
  0.00000000E+00  0.00000000E+00  0.00000000E+00
  0.00000000E+00  0.00000000E+00  0.00000000E+00
  0.00000000E+00  0.00000000E+00  0.00000000E+00
  0.00000000E+00  0.00000000E+00  0.00000000E+00
  0.00000000E+00  0.00000000E+00  0.00000000E+00
  0.00000000E+00  0.00000000E+00  0.00000000E+00
  0.00000000E+00  0.00000000E+00  0.00000000E+00
  0.00000000E+00  0.00000000E+00  0.00000000E+00
  0.00000000E+00  0.00000000E+00  0.00000000E+00
  0.00000000E+00  0.00000000E+00  0.00000000E+00
  0.00000000E+00  0.00000000E+00  0.00000000E+00
  0.00000000E+00  0.00000000E+00  0.00000000E+00
  0.00000000E+00  0.00000000E+00  0.00000000E+00
  0.00000000E+00  0.00000000E+00  0.00000000E+00
  0.00000000E+00  0.00000000E+00  0.00000000E+00
  0.00000000E+00  0.00000000E+00  0.00000000E+00
  0.00000000E+00  0.00000000E+00  0.00000000E+00
  0.00000000E+00  0.00000000E+00  0.00000000E+00
  0.00000000E+00  0.00000000E+00  0.00000000E+00
  0.00000000E+00  0.00000000E+00  0.00000000E+00
  0.00000000E+00  0.00000000E+00  0.00000000E+00
  0.00000000E+00  0.00000000E+00  0.00000000E+00
  0.00000000E+00  0.00000000E+00  0.00000000E+00
  0.00000000E+00  0.00000000E+00  0.00000000E+00
  0.00000000E+00  0.00000000E+00  0.00000000E+00
  0.00000000E+00  0.00000000E+00  0.00000000E+00
  0.00000000E+00  0.00000000E+00  0.00000000E+00
  0.00000000E+00  0.00000000E+00  0.00000000E+00
  0.00000000E+00  0.00000000E+00  0.00000000E+00
  0.00000000E+00  0.00000000E+00  0.00000000E+00
  0.00000000E+00  0.00000000E+00  0.00000000E+00
  0.00000000E+00  0.00000000E+00  0.00000000E+00
  0.00000000E+00  0.00000000E+00  0.00000000E+00
  0.00000000E+00  0.00000000E+00  0.00000000E+00
  0.00000000E+00  0.00000000E+00  0.00000000E+00
  0.00000000E+00  0.00000000E+00  0.00000000E+00
  0.00000000E+00  0.00000000E+00  0.00000000E+00
  0.00000000E+00  0.00000000E+00  0.00000000E+00
  0.00000000E+00  0.00000000E+00  0.00000000E+00
  0.00000000E+00  0.00000000E+00  0.00000000E+00
  0.00000000E+00  0.00000000E+00  0.00000000E+00
  0.00000000E+00  0.00000000E+00  0.00000000E+00
  0.00000000E+00  0.00000000E+00  0.00000000E+00
  0.00000000E+00  0.00000000E+00  0.00000000E+00
  0.00000000E+00  0.00000000E+00  0.00000000E+00
  0.00000000E+00  0.00000000E+00  0.00000000E+00
  0.00000000E+00  0.00000000E+00  0.00000000E+00
  0.00000000E+00  0.00000000E+00  0.00000000E+00
  0.00000000E+00  0.00000000E+00  0.00000000E+00
  0.00000000E+00  0.00000000E+00  0.00000000E+00
  0.00000000E+00  0.00000000E+00  0.00000000E+00
  0.00000000E+00  0.00000000E+00  0.00000000E+00
  0.00000000E+00  0.00000000E+00  0.00000000E+00
  0.00000000E+00  0.00000000E+00  0.00000000E+00
  0.00000000E+00  0.00000000E+00  0.00000000E+00
  0.00000000E+00  0.00000000E+00  0.00000000E+00
  0.00000000E+00  0.00000000E+00  0.00000000E+00
  0.00000000E+00  0.00000000E+00  0.00000000E+00
  0.00000000E+00  0.00000000E+00  0.00000000E+00
  0.00000000E+00  0.00000000E+00  0.00000000E+00
  0.00000000E+00  0.00000000E+00  0.00000000E+00
  0.00000000E+00  0.00000000E+00  0.00000000E+00
  0.00000000E+00  0.00000000E+00  0.00000000E+00
  0.00000000E+00  0.00000000E+00  0.00000000E+00
  0.00000000E+00  0.00000000E+00  0.00000000E+00
  0.00000000E+00  0.00000000E+00  0.00000000E+00
  0.00000000E+00  0.00000000E+00  0.00000000E+00
  0.00000000E+00  0.00000000E+00  0.00000000E+00
  0.00000000E+00  0.00000000E+00  0.00000000E+00
  0.00000000E+00  0.00000000E+00  0.00000000E+00
  0.00000000E+00  0.00000000E+00  0.00000000E+00
  0.00000000E+00  0.00000000E+00  0.00000000E+00
  0.00000000E+00  0.00000000E+00  0.00000000E+00
  0.00000000E+00  0.00000000E+00  0.00000000E+00
  0.00000000E+00  0.00000000E+00  0.00000000E+00
  0.00000000E+00  0.00000000E+00  0.00000000E+00
  0.00000000E+00  0.00000000E+00  0.00000000E+00
  0.00000000E+00  0.00000000E+00  0.00000000E+00
  0.00000000E+00  0.00000000E+00  0.00000000E+00
  0.00000000E+00  0.00000000E+00  0.00000000E+00
  0.00000000E+00  0.00000000E+00  0.00000000E+00
  0.00000000E+00  0.00000000E+00  0.00000000E+00
  0.00000000E+00  0.00000000E+00  0.00000000E+00
  0.00000000E+00  0.00000000E+00  0.00000000E+00
  0.00000000E+00  0.00000000E+00  0.00000000E+00
  0.00000000E+00  0.00000000E+00  0.00000000E+00
  0.00000000E+00  0.00000000E+00  0.00000000E+00
  0.00000000E+00  0.00000000E+00  0.00000000E+00
  0.00000000E+00  0.00000000E+00  0.00000000E+00
  0.00000000E+00  0.00000000E+00  0.00000000E+00
  0.00000000E+00  0.00000000E+00  0.00000000E+00
  0.00000000E+00  0.00000000E+00  0.00000000E+00
  0.00000000E+00  0.00000000E+00  0.00000000E+00
  0.00000000E+00  0.00000000E+00  0.00000000E+00
  0.00000000E+00  0.00000000E+00  0.00000000E+00
  0.00000000E+00  0.00000000E+00  0.00000000E+00
  0.00000000E+00  0.00000000E+00  0.00000000E+00
  0.00000000E+00  0.00000000E+00  0.00000000E+00
  0.00000000E+00  0.00000000E+00  0.00000000E+00
  0.00000000E+00  0.00000000E+00  0.00000000E+00
  0.00000000E+00  0.00000000E+00  0.00000000E+00
  0.00000000E+00  0.00000000E+00  0.00000000E+00
  0.00000000E+00  0.00000000E+00  0.00000000E+00
  0.00000000E+00  0.00000000E+00  0.00000000E+00
  0.00000000E+00  0.00000000E+00  0.00000000E+00
  0.00000000E+00  0.00000000E+00  0.00000000E+00
  0.00000000E+00  0.00000000E+00  0.00000000E+00
  0.00000000E+00  0.00000000E+00  0.00000000E+00
  0.00000000E+00  0.00000000E+00  0.00000000E+00
  0.00000000E+00  0.00000000E+00  0.00000000E+00
  0.00000000E+00  0.00000000E+00  0.00000000E+00
  0.00000000E+00  0.00000000E+00  0.00000000E+00
  0.00000000E+00  0.00000000E+00  0.00000000E+00
  0.00000000E+00  0.00000000E+00  0.00000000E+00
  0.00000000E+00  0.00000000E+00  0.00000000E+00
  0.00000000E+00  0.00000000E+00  0.00000000E+00
  0.00000000E+00  0.00000000E+00  0.00000000E+00
  0.00000000E+00  0.00000000E+00  0.00000000E+00
  0.00000000E+00  0.00000000E+00  0.00000000E+00
  0.00000000E+00  0.00000000E+00  0.00000000E+00
  0.00000000E+00  0.00000000E+00  0.00000000E+00
  0.00000000E+00  0.00000000E+00  0.00000000E+00
  0.00000000E+00  0.00000000E+00  0.00000000E+00
  0.00000000E+00  0.00000000E+00  0.00000000E+00
  0.00000000E+00  0.00000000E+00  0.00000000E+00
  0.00000000E+00  0.00000000E+00  0.00000000E+00
  0.00000000E+00  0.00000000E+00  0.00000000E+00
  0.00000000E+00  0.00000000E+00  0.00000000E+00
  0.00000000E+00  0.00000000E+00  0.00000000E+00
  0.00000000E+00  0.00000000E+00  0.00000000E+00
  0.00000000E+00  0.00000000E+00  0.00000000E+00
  0.00000000E+00  0.00000000E+00  0.00000000E+00
  0.00000000E+00  0.00000000E+00  0.00000000E+00
  0.00000000E+00  0.00000000E+00  0.00000000E+00
  0.00000000E+00  0.00000000E+00  0.00000000E+00
  0.00000000E+00  0.00000000E+00  0.00000000E+00
  0.00000000E+00  0.00000000E+00  0.00000000E+00
  0.00000000E+00  0.00000000E+00  0.00000000E+00
  0.00000000E+00  0.00000000E+00  0.00000000E+00
  0.00000000E+00  0.00000000E+00  0.00000000E+00
  0.00000000E+00  0.00000000E+00  0.00000000E+00
  0.00000000E+00  0.00000000E+00  0.00000000E+00
  0.00000000E+00  0.00000000E+00  0.00000000E+00
  0.00000000E+00  0.00000000E+00  0.00000000E+00
  0.00000000E+00  0.00000000E+00  0.00000000E+00
  0.00000000E+00  0.00000000E+00  0.00000000E+00
  0.00000000E+00  0.00000000E+00  0.00000000E+00
  0.00000000E+00  0.00000000E+00  0.00000000E+00
  0.00000000E+00  0.00000000E+00  0.00000000E+00
  0.00000000E+00  0.00000000E+00  0.00000000E+00
  0.00000000E+00  0.00000000E+00  0.00000000E+00
