-10.0% N(Distort)=3 ~[0.5,0.5,0.5]      
   1.00000000000000     
    12.5998379999999983    0.0000000000000004    0.0000000000000004
     0.0000000000000004   12.5998379999999983   -0.0000000000000004
    -0.0000000000000004   -0.0000000000000004   12.5998379999999983
   Mg   O 
   109   107
Direct
  0.6664323182239977 -0.0004991696350659  0.0005545627499292
  0.8330870130327586  0.1658305747330703  0.0006359353756632
  0.8329282754818815 -0.0005284400282702  0.1669441784407311
  0.3321575293757763 -0.0004439066834872  0.0004953402992896
  0.4992993622244344  0.1648445148174762 -0.0009633952413032
  0.6667973745582072  0.3322607866893284  0.9995897422416844
  0.8333362051168940  0.4993732308023784  0.0004528556667660
  0.4991469033590968  0.9996124457119588  0.1665321912673001
  0.6666433975340332  0.1653306995383153  0.1667237009153561
  0.8329072585480336  0.3322898211652308  0.1669396833060058
  0.6662861224689995  0.0004021198456553  0.3335731642007875
  0.8331399702366734  0.1653512624409354  0.3332309996895295
  0.8333290405410912 -0.0003840368502931  0.5007052442984135
  0.9993452618479433 -0.0004916394275775  0.0005347892985189
  0.1657134093060355  0.1658917616864566  0.0001791660937433
  0.3319181455156722  0.3321076192431786 -0.0013034521874043
  0.4990825573303494  0.4992759806577188  0.9962611354265262
  0.6662977181642806  0.6665162052052094 -0.0002963744639267
  0.8329464073077465  0.8331264658680567  0.0005882187324536
  0.1656199337586147 -0.0005645222491878  0.1667903500014544
  0.3317926188496627  0.1652541212828990  0.1660771455169076
  0.4994505083173548  0.3262206940652727  0.1593146064145941
  0.6667434613662853  0.4990778097329555  0.1636917176224202
  0.8340260112944298  0.6664128955628090  0.1658322505176397
  0.3319979484014102  0.0004763387168276  0.3330492386006658
  0.4990306339138182  0.1647718894884616  0.3324455210731884
  0.6661856688699426  0.3310147053412511  0.3336685857497926
  0.8361702282758209  0.4990721857796060  0.3331109670632357
  0.4990399515288813  0.0038272831051155  0.5008124554270199
  0.6674023094565368  0.1647777987537548  0.5008210865216922
  0.8405463404289398  0.3262273209861226  0.5004299055230301
  0.6668000029484444  0.0004709955695690  0.6678324583851744
  0.8337800739917671  0.1652649122957059  0.6680775645830453
  0.8330717686162127 -0.0005682638081533  0.8342501930742137
 -0.0006302124731588  0.3323618182199217  0.0004925026025107
  0.1646658947266107  0.4994877084248205 -0.0009822097517148
  0.3320609775741996  0.6669884236739366 -0.0004027608426139
  0.4991637845762391  0.8335181750796917  0.0004569737077069
 -0.0007542625753638  0.1658443290804830  0.1667904294904521
  0.1650543923167825  0.3320196798386941  0.1660789296471992
  0.3260550396097290  0.4996495410864947  0.1593309766153540
  0.4988833110606957  0.6669296535908590  0.1637106402176786
  0.6662220969784295  0.8342389558301676  0.1658532747735949
 -0.0006978456107862 -0.0004881088375570  0.3334391194484360
  0.1650886230932859  0.1653079020165290  0.3332082819486999
  0.3284174476136183  0.3286566528552348  0.3331854906302041
  0.4803589783675661  0.4804971505947828  0.3015426543338894
  0.6723854613184611  0.6726076229914695  0.3274662939523316
  0.8340115093379291  0.8342422032084289  0.3336553158214967
  0.1646243921486024  0.0010345944861247  0.5005746925773916
  0.3319271498821226  0.1663091291588080  0.5005623057446980
  0.4993319235463347  0.3291928825535557  0.5005234131920007
  0.6983054868206908  0.4805026328474749  0.5194649679677468
  0.8361543040984729  0.6669169474931014  0.5009723318345964
  0.3319103831293219  0.0013650632743285  0.6679646405944155
  0.4993186770173633  0.1663174999568920  0.6679330024167909
  0.6666737935152899  0.3286437441821496  0.6714320552328530
  0.8405291159418024  0.4996316483596112  0.6738088687013839
  0.4992928051137633  0.0010304403163247  0.8352224415272709
  0.6666614735566173  0.1653068366181499  0.8347725233884407
  0.8337786653926091  0.3320109597829222  0.8348113322139440
 -0.0006866225209713  0.6666205400231205  0.0005299331159234
  0.1656440603090012  0.8332414998845471  0.0006195843120805
 -0.0005990207613231  0.4993657544303531  0.1665111840885272
  0.1650872748632946  0.6668322665750481  0.1667121870085323
  0.3320844469745628  0.8331140291146069  0.1669484700088526
  0.0002568782035098  0.3322561317594391  0.3330599610211855
  0.1645377372340325  0.4992735580357366  0.3324328686319313
  0.3308401243976313  0.6664124203299504  0.3336367220899442
  0.4988666855081637  0.8364423982711116  0.3331230030537703
  0.0008014552185541  0.1648570970647240  0.5005679153735746
  0.1660901415401561  0.3321615031236286  0.5005301336025474
  0.3289934879078863  0.4995482585401712  0.5004821589485753
  0.4803278826954608  0.6985423296032527  0.5194468841454066
  0.6667170652429830  0.8364264241789338  0.5009726877268132
  0.9993504241139958 -0.0004366545947883  0.6677088976445394
  0.1661392640658683  0.1663543443693458  0.6675244111950324
  0.3327482372169602  0.3329571468875834  0.6670955876777752
  0.4993483462981695  0.4995487405278222  0.6708185414215297
  0.6661838562529813  0.6663871501748391  0.6689690894372384
  0.8328980255625443  0.8331209370233074  0.6677641614829622
  0.1657060210979609 -0.0001233059774644  0.8341669826303637
  0.3323479672645684  0.1663460689750884  0.8337211566288495
  0.4993379063043830  0.3321603545945369  0.8337489201246366
  0.6674200239420686  0.4992792988456789  0.8352925876330267
  0.8331329737803325  0.6668346187390040  0.8347170145151186
 -0.0007329744108429  0.8331258569924045  0.1669293560818526
  0.0001232591387072  0.6665045112020099  0.3335479869435038
  0.1650763165456207  0.8333393473114021  0.3332143158060246
  0.0035727791405667  0.4992679260357102  0.5007745955017890
  0.1645474307433227  0.6676189336797820  0.5007822684141124
  0.3260173965984946  0.8407643557585174  0.5003958040157001
  0.0011538264794498  0.3321104116411426  0.6679438781575320
  0.1660947705780833  0.4995354881974015  0.6678733459438192
  0.3284534048133523  0.6668918390835966  0.6713790248918259
  0.4994473554551900  0.8407415023234679  0.6738006080432134
 -0.0002995722897296  0.1658908004596808  0.8341650603496436
  0.1661537274223881  0.3325464295106353  0.8337114522036463
  0.3319679915232362  0.4995205359305175  0.8337424940266680
  0.4990678361342528  0.6676104489118807  0.8352717006113015
  0.6666494411011128  0.8333344933685713  0.8347125252156687
 -0.0006080604972461  0.8335353447255286  0.5007005463848333
  0.0002479142784788  0.6669994011005982  0.6677994839262605
  0.1650547123156320  0.8339850250864498  0.6680400606215905
  0.0008265241644918  0.4994975886903735  0.8351934641326515
  0.1651137277776796  0.6668341241350357  0.8347391232174617
  0.3318239714427615  0.8339753034239762  0.8347925297521709
 -0.0007603848571047  0.8332487787305185  0.8342217960300806
  0.5566768305341296  0.5569088208844206  0.4431688881706166
  0.8324202924302454  0.1662673364169119  0.1674516630151885
 -0.0010613052667579  0.3328846426473506  0.1671995997631524
 -0.0008911595361420  0.1660522209944837  0.3337777495997269
  0.4992840398782978  0.1649841672883226  0.1659398891368923
  0.6650768971909501  0.3337009634132628  0.1676337586498847
  0.8312883775634246  0.4995901083331705  0.1685684776501524
 -0.0009962269102166  0.6660696096682711  0.1674231492911153
  0.6659611923575558  0.1664712898079276  0.3338912568676893
  0.8322208446471991  0.3336967983909893  0.3347749656210897
  0.0002048174935582  0.4994862079911952  0.3333810420883155
  0.8339270016168892  0.1649922298669038  0.5005788364241281
  0.0017641595358541  0.3318797660206567  0.5004579491371700
 -0.0003055027152242  0.1661421698861495  0.6671991041292670
  0.1658916959649547  0.1661231233010677  0.1669633939385181
  0.3332055354681278  0.3334029530600934  0.1663823510991748
  0.4984545629185465  0.4986539062668826  0.1561445387768471
  0.6651160627226459  0.6653241382691764  0.1672969389717530
  0.8320456928973957  0.8322495238406157  0.1678203514134723
  0.9991009623579583 -0.0006972120597084  0.1672910474702844
  0.3322244751306548  0.1658193317805815  0.3333464224693816
  0.4980561695593074  0.3297917927671001  0.3310685664022877
  0.6595688166420666  0.4998944870042532  0.3402818901266524
  0.8325482831381751  0.6653078710406950  0.3347493181259596
 -0.0010044264401381  0.8326333451106385  0.3339926883916841
  0.4997398537033926  0.1670899897582266  0.5001275891161091
  0.6687688122694045  0.3297938204233581  0.5017841895600013
  0.8437252216107586  0.4986360512084325  0.5014116747052626
  0.0001977801571334  0.6666751537857764  0.5005748705746722
  0.6665150777440051  0.1658179740777738  0.6676348367112411
  0.8334906269653898  0.3333868649529533  0.6666700462134557
  0.0017704931363052  0.4996048249167879  0.6681670100392960
  0.8329116349442132  0.1661194476380555  0.8339802269074127
 -0.0002789455741771  0.3328620356682706  0.8339085890581647
 -0.0007242380321067  0.1661073088240019  0.0006080252286268
  0.1647967803389668  0.4995071923195236  0.1659290595075551
  0.3334992587664621  0.6652915647240374  0.1676259105573416
  0.4993922935689482  0.8314929334304649  0.1685765580178095
  0.6658646934392781 -0.0007619104393757  0.1674289272970945
  0.1656052789431302  0.3324609827396758  0.3333296724368189
  0.3296075459321217  0.4982760111947732  0.3310733412233793
  0.4996641465898104  0.6598195115572740  0.3402909895315329
  0.6651060550948631  0.8327992377755902  0.3347558571947998
  0.8324196255375262 -0.0007579763070935  0.3339989119799309
  0.1663357194845774  0.1665652355305514  0.5002862802184173
  0.3337388092294458  0.3339586913747024  0.4995430184410411
  0.6595798889299045  0.6598030824846567  0.5001592490588556
  0.8312775041727140  0.8314945539184841  0.5004738398877560
  0.9990332771295282 -0.0007493765797353  0.5004900910949535
  0.3330263807197248  0.1671840369727256  0.6668384434004757
  0.5003064987432962  0.3339549834024092  0.6661084038169116
  0.6687745679776389  0.4982687082463662  0.6702206823653536
  0.8322245098350948  0.6652799973950743  0.6663371006857783
 -0.0010817310065560  0.8328622465386882  0.6671917597038887
  0.4995858291480967  0.1665646608492142  0.8335171764565895
  0.6665161939056174  0.3324648506696402  0.8342407556697518
  0.8339149718315684  0.4995052890649238  0.8350616356068530
 -0.0008932315296579  0.6662762257819240  0.8339988085082957
  0.6660815715240678  0.1660490337361590  0.0007538340861702
  0.8326563175081426  0.3328848214080793  0.0009235267228218
 -0.0009347978335105  0.4995709678190887  0.0007912122605130
  0.1660459042367411  0.8325985667104421  0.1674506926574506
  0.3326340651787911 -0.0008538042111154  0.1671748475557381
  0.1662591609227105  0.6661839522185860  0.3338583277144490
  0.3334837106732557  0.8324485431461095  0.3347737159324400
  0.4992230124825683  0.0004630048709717  0.3333976316280375
  0.1668611479047418  0.4999652579930313  0.5000730151769904
  0.3295943351375504  0.6689793782280944  0.5017651805686490
  0.4984426389446462  0.8439722676636765  0.5013853666749765
  0.6664395772118813  0.0004577263659222  0.5006098666530661
  0.1669480333034529  0.3332493635001879  0.6668124111525002
  0.3337532938951683  0.5005149066055166  0.6660804352896148
  0.4980558844422471  0.6689883377498196  0.6701885340259298
  0.6650776067252983  0.8324421078248179  0.6663449025295826
  0.8326628559646886 -0.0008515455281459  0.6672190387756702
  0.1661600636072331  0.1663667643168581  0.8337068140305024
  0.3330343728254236  0.3332387387328218  0.8328770932383091
  0.4997781536777081  0.4999616643149615  0.8329396933150643
  0.6659836209094175  0.6661856220433169  0.8335562834403719
  0.8324078387142992  0.8326067684012254  0.8337825536305830
  0.9992675361883296 -0.0005560126742973  0.8339630545257423
  0.3326599840151662  0.1661364005591630  0.0001499506441319
  0.4993953123408166  0.3318826788135530  0.9980813189360602
  0.6664576764695135  0.4994962446259549 -0.0003631642412323
  0.8324323271972510  0.6660770176760460  0.0008377912318037
 -0.0008795362335858  0.8327656501600067  0.0007405311126127
  0.1658221665901880 -0.0006917069317778  0.3337756695353848
  0.1647759431737980  0.8341400862177956  0.5005688882913876
  0.3316446615898285  0.0019940086716001  0.5004932210802001
  0.1656094338340966  0.6667282072196077  0.6675885480306217
  0.3332118106442897  0.8336981147425121  0.6666382398527454
  0.4993913888545637  0.0019931899538528  0.6682109074303038
  0.1663669165731835  0.4997970812371400  0.8334793226575306
  0.3322583536985753  0.6667074635364585  0.8342236609566885
  0.4992983641303114  0.8341253746153408  0.8350566379357197
  0.6660797360477768 -0.0006958092807721  0.8340206556500696
  0.1659410425355170  0.3328531092532397  0.0001428236075511
  0.3316902126588828  0.4995834965046093 -0.0019197382068676
  0.4992539163748297  0.6666625360041611 -0.0003939484927360
  0.6658804553900012  0.8326421672958917  0.0008419709877990
  0.8325961592630077 -0.0006994689805648  0.0007616051678704
  0.1659229895521243 -0.0000853039805488  0.6672216379979395
  0.1659171665531029  0.8330890794540221  0.8339388731922225
  0.3326314570258908 -0.0000910837256881  0.8339225995301432
  0.1658529252541225  0.6662716397953575  0.0007422758289509
  0.3326560996119408  0.8328564967822406  0.0009148077951443
  0.4993574295892492  0.9992482058795592  0.0008188578248652
  0.1659132165560804 -0.0005569098661891  0.0006016355141072
 
  0.00000000E+00  0.00000000E+00  0.00000000E+00
  0.00000000E+00  0.00000000E+00  0.00000000E+00
  0.00000000E+00  0.00000000E+00  0.00000000E+00
  0.00000000E+00  0.00000000E+00  0.00000000E+00
  0.00000000E+00  0.00000000E+00  0.00000000E+00
  0.00000000E+00  0.00000000E+00  0.00000000E+00
  0.00000000E+00  0.00000000E+00  0.00000000E+00
  0.00000000E+00  0.00000000E+00  0.00000000E+00
  0.00000000E+00  0.00000000E+00  0.00000000E+00
  0.00000000E+00  0.00000000E+00  0.00000000E+00
  0.00000000E+00  0.00000000E+00  0.00000000E+00
  0.00000000E+00  0.00000000E+00  0.00000000E+00
  0.00000000E+00  0.00000000E+00  0.00000000E+00
  0.00000000E+00  0.00000000E+00  0.00000000E+00
  0.00000000E+00  0.00000000E+00  0.00000000E+00
  0.00000000E+00  0.00000000E+00  0.00000000E+00
  0.00000000E+00  0.00000000E+00  0.00000000E+00
  0.00000000E+00  0.00000000E+00  0.00000000E+00
  0.00000000E+00  0.00000000E+00  0.00000000E+00
  0.00000000E+00  0.00000000E+00  0.00000000E+00
  0.00000000E+00  0.00000000E+00  0.00000000E+00
  0.00000000E+00  0.00000000E+00  0.00000000E+00
  0.00000000E+00  0.00000000E+00  0.00000000E+00
  0.00000000E+00  0.00000000E+00  0.00000000E+00
  0.00000000E+00  0.00000000E+00  0.00000000E+00
  0.00000000E+00  0.00000000E+00  0.00000000E+00
  0.00000000E+00  0.00000000E+00  0.00000000E+00
  0.00000000E+00  0.00000000E+00  0.00000000E+00
  0.00000000E+00  0.00000000E+00  0.00000000E+00
  0.00000000E+00  0.00000000E+00  0.00000000E+00
  0.00000000E+00  0.00000000E+00  0.00000000E+00
  0.00000000E+00  0.00000000E+00  0.00000000E+00
  0.00000000E+00  0.00000000E+00  0.00000000E+00
  0.00000000E+00  0.00000000E+00  0.00000000E+00
  0.00000000E+00  0.00000000E+00  0.00000000E+00
  0.00000000E+00  0.00000000E+00  0.00000000E+00
  0.00000000E+00  0.00000000E+00  0.00000000E+00
  0.00000000E+00  0.00000000E+00  0.00000000E+00
  0.00000000E+00  0.00000000E+00  0.00000000E+00
  0.00000000E+00  0.00000000E+00  0.00000000E+00
  0.00000000E+00  0.00000000E+00  0.00000000E+00
  0.00000000E+00  0.00000000E+00  0.00000000E+00
  0.00000000E+00  0.00000000E+00  0.00000000E+00
  0.00000000E+00  0.00000000E+00  0.00000000E+00
  0.00000000E+00  0.00000000E+00  0.00000000E+00
  0.00000000E+00  0.00000000E+00  0.00000000E+00
  0.00000000E+00  0.00000000E+00  0.00000000E+00
  0.00000000E+00  0.00000000E+00  0.00000000E+00
  0.00000000E+00  0.00000000E+00  0.00000000E+00
  0.00000000E+00  0.00000000E+00  0.00000000E+00
  0.00000000E+00  0.00000000E+00  0.00000000E+00
  0.00000000E+00  0.00000000E+00  0.00000000E+00
  0.00000000E+00  0.00000000E+00  0.00000000E+00
  0.00000000E+00  0.00000000E+00  0.00000000E+00
  0.00000000E+00  0.00000000E+00  0.00000000E+00
  0.00000000E+00  0.00000000E+00  0.00000000E+00
  0.00000000E+00  0.00000000E+00  0.00000000E+00
  0.00000000E+00  0.00000000E+00  0.00000000E+00
  0.00000000E+00  0.00000000E+00  0.00000000E+00
  0.00000000E+00  0.00000000E+00  0.00000000E+00
  0.00000000E+00  0.00000000E+00  0.00000000E+00
  0.00000000E+00  0.00000000E+00  0.00000000E+00
  0.00000000E+00  0.00000000E+00  0.00000000E+00
  0.00000000E+00  0.00000000E+00  0.00000000E+00
  0.00000000E+00  0.00000000E+00  0.00000000E+00
  0.00000000E+00  0.00000000E+00  0.00000000E+00
  0.00000000E+00  0.00000000E+00  0.00000000E+00
  0.00000000E+00  0.00000000E+00  0.00000000E+00
  0.00000000E+00  0.00000000E+00  0.00000000E+00
  0.00000000E+00  0.00000000E+00  0.00000000E+00
  0.00000000E+00  0.00000000E+00  0.00000000E+00
  0.00000000E+00  0.00000000E+00  0.00000000E+00
  0.00000000E+00  0.00000000E+00  0.00000000E+00
  0.00000000E+00  0.00000000E+00  0.00000000E+00
  0.00000000E+00  0.00000000E+00  0.00000000E+00
  0.00000000E+00  0.00000000E+00  0.00000000E+00
  0.00000000E+00  0.00000000E+00  0.00000000E+00
  0.00000000E+00  0.00000000E+00  0.00000000E+00
  0.00000000E+00  0.00000000E+00  0.00000000E+00
  0.00000000E+00  0.00000000E+00  0.00000000E+00
  0.00000000E+00  0.00000000E+00  0.00000000E+00
  0.00000000E+00  0.00000000E+00  0.00000000E+00
  0.00000000E+00  0.00000000E+00  0.00000000E+00
  0.00000000E+00  0.00000000E+00  0.00000000E+00
  0.00000000E+00  0.00000000E+00  0.00000000E+00
  0.00000000E+00  0.00000000E+00  0.00000000E+00
  0.00000000E+00  0.00000000E+00  0.00000000E+00
  0.00000000E+00  0.00000000E+00  0.00000000E+00
  0.00000000E+00  0.00000000E+00  0.00000000E+00
  0.00000000E+00  0.00000000E+00  0.00000000E+00
  0.00000000E+00  0.00000000E+00  0.00000000E+00
  0.00000000E+00  0.00000000E+00  0.00000000E+00
  0.00000000E+00  0.00000000E+00  0.00000000E+00
  0.00000000E+00  0.00000000E+00  0.00000000E+00
  0.00000000E+00  0.00000000E+00  0.00000000E+00
  0.00000000E+00  0.00000000E+00  0.00000000E+00
  0.00000000E+00  0.00000000E+00  0.00000000E+00
  0.00000000E+00  0.00000000E+00  0.00000000E+00
  0.00000000E+00  0.00000000E+00  0.00000000E+00
  0.00000000E+00  0.00000000E+00  0.00000000E+00
  0.00000000E+00  0.00000000E+00  0.00000000E+00
  0.00000000E+00  0.00000000E+00  0.00000000E+00
  0.00000000E+00  0.00000000E+00  0.00000000E+00
  0.00000000E+00  0.00000000E+00  0.00000000E+00
  0.00000000E+00  0.00000000E+00  0.00000000E+00
  0.00000000E+00  0.00000000E+00  0.00000000E+00
  0.00000000E+00  0.00000000E+00  0.00000000E+00
  0.00000000E+00  0.00000000E+00  0.00000000E+00
  0.00000000E+00  0.00000000E+00  0.00000000E+00
  0.00000000E+00  0.00000000E+00  0.00000000E+00
  0.00000000E+00  0.00000000E+00  0.00000000E+00
  0.00000000E+00  0.00000000E+00  0.00000000E+00
  0.00000000E+00  0.00000000E+00  0.00000000E+00
  0.00000000E+00  0.00000000E+00  0.00000000E+00
  0.00000000E+00  0.00000000E+00  0.00000000E+00
  0.00000000E+00  0.00000000E+00  0.00000000E+00
  0.00000000E+00  0.00000000E+00  0.00000000E+00
  0.00000000E+00  0.00000000E+00  0.00000000E+00
  0.00000000E+00  0.00000000E+00  0.00000000E+00
  0.00000000E+00  0.00000000E+00  0.00000000E+00
  0.00000000E+00  0.00000000E+00  0.00000000E+00
  0.00000000E+00  0.00000000E+00  0.00000000E+00
  0.00000000E+00  0.00000000E+00  0.00000000E+00
  0.00000000E+00  0.00000000E+00  0.00000000E+00
  0.00000000E+00  0.00000000E+00  0.00000000E+00
  0.00000000E+00  0.00000000E+00  0.00000000E+00
  0.00000000E+00  0.00000000E+00  0.00000000E+00
  0.00000000E+00  0.00000000E+00  0.00000000E+00
  0.00000000E+00  0.00000000E+00  0.00000000E+00
  0.00000000E+00  0.00000000E+00  0.00000000E+00
  0.00000000E+00  0.00000000E+00  0.00000000E+00
  0.00000000E+00  0.00000000E+00  0.00000000E+00
  0.00000000E+00  0.00000000E+00  0.00000000E+00
  0.00000000E+00  0.00000000E+00  0.00000000E+00
  0.00000000E+00  0.00000000E+00  0.00000000E+00
  0.00000000E+00  0.00000000E+00  0.00000000E+00
  0.00000000E+00  0.00000000E+00  0.00000000E+00
  0.00000000E+00  0.00000000E+00  0.00000000E+00
  0.00000000E+00  0.00000000E+00  0.00000000E+00
  0.00000000E+00  0.00000000E+00  0.00000000E+00
  0.00000000E+00  0.00000000E+00  0.00000000E+00
  0.00000000E+00  0.00000000E+00  0.00000000E+00
  0.00000000E+00  0.00000000E+00  0.00000000E+00
  0.00000000E+00  0.00000000E+00  0.00000000E+00
  0.00000000E+00  0.00000000E+00  0.00000000E+00
  0.00000000E+00  0.00000000E+00  0.00000000E+00
  0.00000000E+00  0.00000000E+00  0.00000000E+00
  0.00000000E+00  0.00000000E+00  0.00000000E+00
  0.00000000E+00  0.00000000E+00  0.00000000E+00
  0.00000000E+00  0.00000000E+00  0.00000000E+00
  0.00000000E+00  0.00000000E+00  0.00000000E+00
  0.00000000E+00  0.00000000E+00  0.00000000E+00
  0.00000000E+00  0.00000000E+00  0.00000000E+00
  0.00000000E+00  0.00000000E+00  0.00000000E+00
  0.00000000E+00  0.00000000E+00  0.00000000E+00
  0.00000000E+00  0.00000000E+00  0.00000000E+00
  0.00000000E+00  0.00000000E+00  0.00000000E+00
  0.00000000E+00  0.00000000E+00  0.00000000E+00
  0.00000000E+00  0.00000000E+00  0.00000000E+00
  0.00000000E+00  0.00000000E+00  0.00000000E+00
  0.00000000E+00  0.00000000E+00  0.00000000E+00
  0.00000000E+00  0.00000000E+00  0.00000000E+00
  0.00000000E+00  0.00000000E+00  0.00000000E+00
  0.00000000E+00  0.00000000E+00  0.00000000E+00
  0.00000000E+00  0.00000000E+00  0.00000000E+00
  0.00000000E+00  0.00000000E+00  0.00000000E+00
  0.00000000E+00  0.00000000E+00  0.00000000E+00
  0.00000000E+00  0.00000000E+00  0.00000000E+00
  0.00000000E+00  0.00000000E+00  0.00000000E+00
  0.00000000E+00  0.00000000E+00  0.00000000E+00
  0.00000000E+00  0.00000000E+00  0.00000000E+00
  0.00000000E+00  0.00000000E+00  0.00000000E+00
  0.00000000E+00  0.00000000E+00  0.00000000E+00
  0.00000000E+00  0.00000000E+00  0.00000000E+00
  0.00000000E+00  0.00000000E+00  0.00000000E+00
  0.00000000E+00  0.00000000E+00  0.00000000E+00
  0.00000000E+00  0.00000000E+00  0.00000000E+00
  0.00000000E+00  0.00000000E+00  0.00000000E+00
  0.00000000E+00  0.00000000E+00  0.00000000E+00
  0.00000000E+00  0.00000000E+00  0.00000000E+00
  0.00000000E+00  0.00000000E+00  0.00000000E+00
  0.00000000E+00  0.00000000E+00  0.00000000E+00
  0.00000000E+00  0.00000000E+00  0.00000000E+00
  0.00000000E+00  0.00000000E+00  0.00000000E+00
  0.00000000E+00  0.00000000E+00  0.00000000E+00
  0.00000000E+00  0.00000000E+00  0.00000000E+00
  0.00000000E+00  0.00000000E+00  0.00000000E+00
  0.00000000E+00  0.00000000E+00  0.00000000E+00
  0.00000000E+00  0.00000000E+00  0.00000000E+00
  0.00000000E+00  0.00000000E+00  0.00000000E+00
  0.00000000E+00  0.00000000E+00  0.00000000E+00
  0.00000000E+00  0.00000000E+00  0.00000000E+00
  0.00000000E+00  0.00000000E+00  0.00000000E+00
  0.00000000E+00  0.00000000E+00  0.00000000E+00
  0.00000000E+00  0.00000000E+00  0.00000000E+00
  0.00000000E+00  0.00000000E+00  0.00000000E+00
  0.00000000E+00  0.00000000E+00  0.00000000E+00
  0.00000000E+00  0.00000000E+00  0.00000000E+00
  0.00000000E+00  0.00000000E+00  0.00000000E+00
  0.00000000E+00  0.00000000E+00  0.00000000E+00
  0.00000000E+00  0.00000000E+00  0.00000000E+00
  0.00000000E+00  0.00000000E+00  0.00000000E+00
  0.00000000E+00  0.00000000E+00  0.00000000E+00
  0.00000000E+00  0.00000000E+00  0.00000000E+00
  0.00000000E+00  0.00000000E+00  0.00000000E+00
  0.00000000E+00  0.00000000E+00  0.00000000E+00
  0.00000000E+00  0.00000000E+00  0.00000000E+00
  0.00000000E+00  0.00000000E+00  0.00000000E+00
  0.00000000E+00  0.00000000E+00  0.00000000E+00
  0.00000000E+00  0.00000000E+00  0.00000000E+00
  0.00000000E+00  0.00000000E+00  0.00000000E+00
  0.00000000E+00  0.00000000E+00  0.00000000E+00
  0.00000000E+00  0.00000000E+00  0.00000000E+00
  0.00000000E+00  0.00000000E+00  0.00000000E+00
  0.00000000E+00  0.00000000E+00  0.00000000E+00
  0.00000000E+00  0.00000000E+00  0.00000000E+00
