10.0% N(Distort)=1 ~[0.5,0.5,0.5]       
   1.00000000000000     
    12.5998379999999983    0.0000000000000004    0.0000000000000004
     0.0000000000000004   12.5998379999999983   -0.0000000000000004
    -0.0000000000000004   -0.0000000000000004   12.5998379999999983
   Mg   O 
   109   107
Direct
  0.6667944848504748  0.0007713205116898  0.0002010788915933
  0.8332104539865880  0.1671350136949016  0.0002265961926236
  0.8332394524662093  0.0008384215089545  0.1665567522942782
  0.3322964312978858  0.0007338117898391  0.0002142116842988
  0.4993920227805337  0.1665703768784877 -0.0000186654871979
  0.6666204808587494  0.3337042483710723  0.9990856452273850
  0.8337548775815532  0.5009417134627113 -0.0000774062444672
  0.4993959670393683  0.0005487158782045  0.1660320519267504
  0.6664971752815934  0.1659434147525505  0.1653624020517975
  0.8343839351811582  0.3338364902019657  0.1653358062672012
  0.6666568726748372 -0.0003066993447212  0.3331292300505816
  0.8343339486454656  0.1659702269054519  0.3332330657740887
  0.8337416660777086  0.0005449963806349  0.5003572474022325
 -0.0004010849454933  0.0008094304317825  0.0002160298989333
  0.1658835918124938  0.1669868003763539  0.0003058650340734
  0.3321846426000097  0.3331941096420538  0.9990338051679728
  0.4993497609721450  0.5010723811724547  0.9955843558289815
  0.6671985578509541  0.6682533506006068 -0.0010083338720750
  0.8333862105422272  0.8345075809605189  0.0002849167598878
  0.1658652810551934  0.0008409105407818  0.1664459159106925
  0.3322880137805079  0.1671084112614842  0.1665688945308616
  0.4990519274528983  0.3329477156905521  0.1617412013477613
  0.6673763250827661  0.5012869197207004  0.1616184871263570
  0.8332186645081929  0.6680481285267886  0.1665271194046877
  0.3321947511316479 -0.0003544961646345  0.3326589911686239
  0.4990769354550299  0.1623306289824105  0.3323578697948865
  0.6727369442206732  0.3274833712873890  0.3268271252071163
  0.8380277202082058  0.5012600350336925  0.3323275379629284
  0.4993210855442637  0.9962162689103443  0.5004678025499062
  0.6673901936510325  0.1622442270994646  0.5006856687407570
  0.8379974257975660  0.3329498351083562  0.5006323597628920
  0.6671649199681532 -0.0003818265804143  0.6675844974017784
  0.8331644004209562  0.1671163576758730  0.6674765745630381
  0.8333580691059892  0.0008503301572726  0.8339351761408271
 -0.0004124550681253  0.3335788018679416  0.0001599611967114
  0.1647683162888587  0.5007715008296959 -0.0012971258699074
  0.3321067726726505  0.6682714357781867 -0.0016565618656857
  0.4995775201323375  0.8356300265716319 -0.0012708343613217
  0.9995481177614086  0.1671486348983808  0.1665566450375535
  0.1654008501207288  0.3333472227196552  0.1663169775803442
  0.3262280434746421  0.5005431168628741  0.1580900361077368
  0.4998387285625925  0.6742997707086242  0.1580210902846229
  0.6670198584501986  0.8350543958894191  0.1663032330456804
 -0.0004335912414779  0.0007710216585910  0.3329903037999974
  0.1653793554635735  0.1668756168858390  0.3327871471367166
  0.3309414796841584  0.3337677217866955  0.3332493163284046
  0.4818850395692866  0.5189246726032215  0.2977791779912183
  0.6665227685368947  0.6695474759882543  0.3331990114232577
  0.8334602905868627  0.8350030207880508  0.3327610539723598
  0.1647086464542168 -0.0006764209459025  0.5002384999040235
  0.3262226745466943  0.1587206516130620  0.5000023117896871
  0.4820164235808519  0.2984023601345243  0.5182551709394514
  0.7015028031950779  0.5184123833274781  0.5177829567159359
  0.8415377364452317  0.6741054073496946  0.4999436421918267
  0.3320653515554126 -0.0010696301522157  0.6677203408118922
  0.4997698913335094  0.1586278974820297  0.6737010545422366
  0.6664931719161591  0.3337983945903868  0.6689967273373313
  0.8415150185041792  0.5005644080658476  0.6734618418935431
  0.4995516399235541 -0.0007132436348087  0.8350676490801325
  0.6669714640339685  0.1668686947116433  0.8344485078713759
  0.8334264257572136  0.3333550694438783  0.8343798744228202
 -0.0003912857439485  0.6680612574566523  0.0001777293326464
  0.1659111563597553  0.8344306352194781 -0.0001084136129514
 -0.0001626046691964  0.5009170368936301  0.1660038519049919
  0.1653862618078587  0.6682991236122312  0.1657389678524566
  0.3320149145520400  0.8349979221979946  0.1657638736964160
  0.0006644901523098  0.3337047933355167  0.3331043296055473
  0.1644210008816492  0.5010756363196933  0.3316806254277340
  0.3290545947994531  0.6713908375000862  0.3329933668622959
  0.4992898577267796  0.8360365504970514  0.3316601647506646
 -0.0002132888607936  0.1665923388369003  0.5003364421967710
  0.1643874199030294  0.3322548620316909  0.5004797135361813
  0.3222325840455607  0.5013382992535779  0.5007703774944952
  0.4990343540075643  0.6781499407472202  0.5007086935442985
  0.6680917051082588  0.8359969520230717  0.5004553643677982
 -0.0004421029646922  0.0007408656213167  0.6674804471263981
  0.1653291097362904  0.1663361290170333  0.6677541018088341
  0.3290871526629491  0.3335571256104152  0.6707369599496095
  0.4990488598675612  0.5013340565232693  0.6775283165550892
  0.6668266460139722  0.6713090365772384  0.6706449231571010
  0.8340178156642332  0.8350106300453665  0.6677474175457800
  0.1658862942483773  0.0004546109485245  0.8338794498062143
  0.3319928409064415  0.1663457330577412  0.8344460270911279
  0.4992690733101558  0.3322698305549613  0.8354487691880255
  0.6681020044161406  0.5011229158641726  0.8353635534509588
  0.8340425722880548  0.6683518341625206  0.8343953993100993
 -0.0004948932120354  0.8344779358042487  0.1664125047330600
  0.0007189469713489  0.6681724457644826  0.3325664814623836
  0.1653762835609910  0.8349719403795479  0.3327424846484899
  0.0040272097555828  0.5010240118384082  0.5003829008145141
  0.1653856627825287  0.6689078970739867  0.5002467444438937
  0.3314207748995680  0.8349535388420828  0.5002827139364010
  0.0006510018340074  0.3331691521346011  0.6675133938320352
  0.1653626557120319  0.5008344789832451  0.6683019117456568
  0.3326236650641207  0.6677088046268319  0.6671275176312560
  0.4995137305855711  0.8349351250752123  0.6683231806395017
 -0.0005303972676194  0.1669869337163356  0.8338772952392675
  0.1653701007970775  0.3332959621852067  0.8343468568409393
  0.3314254616829883  0.5008643482095407  0.8343359761988036
  0.4995208436145345  0.6689507377033111  0.8343109337877094
  0.6670566056352309  0.8349787808707696  0.8343545442605066
  0.0009841439096707  0.8355816555432212  0.5001982769183498
  0.0013674008209010  0.6682636896259110  0.6676677384456480
  0.1662170564592153  0.8340887347681835  0.6673928575161718
  0.0010080303505394  0.5007778470226302  0.8349616190003375
  0.1662304401121923  0.6679411852596771  0.8335343849305666
  0.3323953438094012  0.8340911945847048  0.8335385245188597
 -0.0000950026666168  0.8344549494810389  0.8338913258839105
  0.5567410854816582  0.4429551476358366  0.4422622065863221
  0.8320167009655079  0.1683586280699463  0.1677265106626097
  0.9992421162890591  0.3343682152993523  0.1673080797234583
 -0.0008018438526140  0.1679225785432755  0.3337491407964989
  0.4996869548871141  0.1692757165727071  0.1686928350739497
  0.6647675608696096  0.3355799860781309  0.1675047629635809
  0.8310047956705632  0.5006299514746249  0.1687042257302354
 -0.0008278660902368  0.6672271709014624  0.1670362869900336
  0.6647837135735603  0.1681608047432512  0.3349702006980926
  0.8320610945425229  0.3356210862702649  0.3349606143317081
  0.0007730725233390  0.5007650069826054  0.3328328857048018
  0.8309782903948503  0.1693543928384562  0.5000233887644799
  0.0007290713721992  0.3334697229483148  0.5001194451674360
 -0.0009004601244210  0.1676642488472237  0.6666452189000230
  0.1665603904477144  0.1679207567487245  0.1673594289077097
  0.3343437224960483  0.3355101096170833  0.1677628696638920
  0.4992069906684041  0.5012168501328927  0.1541336486089780
  0.6648459225730097  0.6660395892474771  0.1677582426708208
  0.8324482159991080  0.8337817880867978  0.1673310603148189
 -0.0006576383689287  0.0010408518679047  0.1670518061077287
  0.3343359041813509  0.1683615907908511  0.3349323794821061
  0.4991152407018637  0.3428914954728562  0.3422870776120947
  0.6568235879694621  0.5012208491607280  0.3425200325946277
  0.8319244592755655  0.6659561195733804  0.3348894338971752
 -0.0006794189240971  0.8340520373908259  0.3335115136850731
  0.4992171100325667  0.1547440331398732  0.5005789589497708
  0.6567944946242668  0.3432053175896599  0.5006224128258140
  0.8452986087834390  0.5011172476713566  0.5004507818737043
  0.0019569553112858  0.6684333781213763  0.5000107112261801
  0.6647959657968208  0.1683899407542780  0.6654321676051340
  0.8319006399345433  0.3355206033460933  0.6653484445047914
  0.0019358785165393  0.5006165527228676  0.6678112800384206
  0.8323967154932030  0.1679169891414083  0.8332083128491441
 -0.0007132367389931  0.3341406717698999  0.8334126442683609
 -0.0006658199108277  0.1676738462375254  0.0004233819636362
  0.1656952042427748  0.5007409965118004  0.1661525678154501
  0.3343169616556523  0.6660793552205150  0.1666995183300094
  0.4996285362768463  0.8347730998426023  0.1660930684995388
  0.6659929502141365  0.0011457528491944  0.1672975834443727
  0.1671401570919300  0.3345270944293429  0.3339242148041873
  0.3328451290583528  0.5018780254234187  0.3340518907372066
  0.4985159454787493  0.6678893608716228  0.3339206164377430
  0.6658654610616526  0.8333429116122240  0.3338950907103903
  0.8324509614836096  0.0011400733943641  0.3337431424774006
  0.1656665519925807  0.1667636117921509  0.5001700207901266
  0.3329124462884320  0.3346030107601463  0.5012716726606499
  0.6657374711501207  0.6676762590883504  0.5012076381454751
  0.8336330249854789  0.8346976009522989  0.5001216621002820
 -0.0008143665482070  0.0011198437815294  0.5001124067107344
  0.3342754594714086  0.1672672880256894  0.6655328019707347
  0.4985123767959582  0.3345573594336010  0.6672632024200771
  0.6657719718230151  0.5018573912878816  0.6670435591648901
  0.8330771041317684  0.6660870972518419  0.6654718190997921
 -0.0001855559730629  0.8339641285030113  0.6667059727262716
  0.4995883859467926  0.1667112806650984  0.8341801151114105
  0.6658443368685881  0.3345262140994498  0.8327214662302105
  0.8336164639524782  0.5007688894637640  0.8340758095890981
 -0.0001552483571657  0.6672654826031326  0.8333829638385803
  0.6659849830107762  0.1678908139509419  0.0005418845623713
  0.8324480056081786  0.3343837387399595  0.0004905171523295
 -0.0007506380550567  0.5006943733542953  0.0005042905451408
  0.1664310476734284  0.8339036644862305  0.1668128788814200
  0.3330674700604487  0.0011893930385946  0.1670643008020392
  0.1664775154471242  0.6673378660642107  0.3333600463195705
  0.3329882477301505  0.8339266123568283  0.3333678636601408
  0.4995720520307231 -0.0003827249750278  0.3328853502498504
  0.1654401612250024  0.5004504565014384  0.4998541302477271
  0.3356857466501788  0.6646650023457121  0.4994422169929851
  0.4998853449059604  0.8349152678248400  0.4998643736369818
  0.6668921746301502 -0.0004019823900387  0.5001803356458914
  0.1664638236038500  0.3339397281658744  0.6667225676380016
  0.3356919713770755  0.5000384340568644  0.6640764544054697
  0.5003342141561674  0.6646738941998870  0.6640324707095211
  0.6664424609112359  0.8338998484907707  0.6667456110453701
  0.8327004708721331  0.0012054037320670  0.6666626404299654
  0.1664134892244248  0.1674143809392668  0.8333516489630358
  0.3329770198736708  0.3339512094663498  0.8333264499101010
  0.4999172818511260  0.5005320404433575  0.8343011012072340
  0.6664450252651527  0.6674153463296654  0.8332699119508935
  0.8329946197236127  0.8339384496378957  0.8333539748035786
 -0.0005347597310562  0.0008936613100210  0.8335386230326564
  0.3330919728579002  0.1676437749748339  0.0006375591241851
  0.4995612563681807  0.3334822478385254  0.9989954822660574
  0.6669026993921416  0.5008468452765570  0.9989327634308982
  0.8327234741277950  0.6672654812326870  0.0005912026641557
 -0.0005132186549644  0.8341495304083465  0.0003004221484191
  0.1662740113285743  0.0010327934104812  0.3335569002509867
  0.1667598428389649  0.8335062004938919  0.4999309820324298
  0.3318525103638416  0.9983527267451541  0.5000907558409764
  0.1674459314583061  0.6667752013525412  0.6662012667657046
  0.3335265167649274  0.8328973127809571  0.6662335249778738
  0.4997389703888935  0.9983220441745895  0.6679385714514317
  0.1667787724231168  0.5004816740098814  0.8329227034105854
  0.3335468419975157  0.6668265219229662  0.8322912681240785
  0.4998567853799607  0.8335362021183991  0.8329550205649815
  0.6662406102434545  0.0010337332898411  0.8334990457773997
  0.1662790942303069  0.3341258296563996  0.0004332581764290
  0.3318773811707149  0.5006579058588589 -0.0022844917381699
  0.4997625553726595  0.6685302978752474 -0.0023022086155976
  0.6662563677450088  0.8341029754765951  0.0004328057127238
  0.8327347598250131  0.0010562202836160  0.0004539130056952
  0.1663371189315800  0.0005412887703674  0.6667049744724887
  0.1664992223659154  0.8338334586699778  0.8332862734116349
  0.3330570244874735  0.0005352241119420  0.8334364222815187
  0.1663921783157130  0.6672507968980765 -0.0000486553564504
  0.3330722665192836  0.8339547036358426 -0.0000397383681929
  0.4996436680194022  0.0010901072986434  0.0005392738825332
  0.1662436614597468  0.0008898313917642  0.0003159095306472
 
  0.00000000E+00  0.00000000E+00  0.00000000E+00
  0.00000000E+00  0.00000000E+00  0.00000000E+00
  0.00000000E+00  0.00000000E+00  0.00000000E+00
  0.00000000E+00  0.00000000E+00  0.00000000E+00
  0.00000000E+00  0.00000000E+00  0.00000000E+00
  0.00000000E+00  0.00000000E+00  0.00000000E+00
  0.00000000E+00  0.00000000E+00  0.00000000E+00
  0.00000000E+00  0.00000000E+00  0.00000000E+00
  0.00000000E+00  0.00000000E+00  0.00000000E+00
  0.00000000E+00  0.00000000E+00  0.00000000E+00
  0.00000000E+00  0.00000000E+00  0.00000000E+00
  0.00000000E+00  0.00000000E+00  0.00000000E+00
  0.00000000E+00  0.00000000E+00  0.00000000E+00
  0.00000000E+00  0.00000000E+00  0.00000000E+00
  0.00000000E+00  0.00000000E+00  0.00000000E+00
  0.00000000E+00  0.00000000E+00  0.00000000E+00
  0.00000000E+00  0.00000000E+00  0.00000000E+00
  0.00000000E+00  0.00000000E+00  0.00000000E+00
  0.00000000E+00  0.00000000E+00  0.00000000E+00
  0.00000000E+00  0.00000000E+00  0.00000000E+00
  0.00000000E+00  0.00000000E+00  0.00000000E+00
  0.00000000E+00  0.00000000E+00  0.00000000E+00
  0.00000000E+00  0.00000000E+00  0.00000000E+00
  0.00000000E+00  0.00000000E+00  0.00000000E+00
  0.00000000E+00  0.00000000E+00  0.00000000E+00
  0.00000000E+00  0.00000000E+00  0.00000000E+00
  0.00000000E+00  0.00000000E+00  0.00000000E+00
  0.00000000E+00  0.00000000E+00  0.00000000E+00
  0.00000000E+00  0.00000000E+00  0.00000000E+00
  0.00000000E+00  0.00000000E+00  0.00000000E+00
  0.00000000E+00  0.00000000E+00  0.00000000E+00
  0.00000000E+00  0.00000000E+00  0.00000000E+00
  0.00000000E+00  0.00000000E+00  0.00000000E+00
  0.00000000E+00  0.00000000E+00  0.00000000E+00
  0.00000000E+00  0.00000000E+00  0.00000000E+00
  0.00000000E+00  0.00000000E+00  0.00000000E+00
  0.00000000E+00  0.00000000E+00  0.00000000E+00
  0.00000000E+00  0.00000000E+00  0.00000000E+00
  0.00000000E+00  0.00000000E+00  0.00000000E+00
  0.00000000E+00  0.00000000E+00  0.00000000E+00
  0.00000000E+00  0.00000000E+00  0.00000000E+00
  0.00000000E+00  0.00000000E+00  0.00000000E+00
  0.00000000E+00  0.00000000E+00  0.00000000E+00
  0.00000000E+00  0.00000000E+00  0.00000000E+00
  0.00000000E+00  0.00000000E+00  0.00000000E+00
  0.00000000E+00  0.00000000E+00  0.00000000E+00
  0.00000000E+00  0.00000000E+00  0.00000000E+00
  0.00000000E+00  0.00000000E+00  0.00000000E+00
  0.00000000E+00  0.00000000E+00  0.00000000E+00
  0.00000000E+00  0.00000000E+00  0.00000000E+00
  0.00000000E+00  0.00000000E+00  0.00000000E+00
  0.00000000E+00  0.00000000E+00  0.00000000E+00
  0.00000000E+00  0.00000000E+00  0.00000000E+00
  0.00000000E+00  0.00000000E+00  0.00000000E+00
  0.00000000E+00  0.00000000E+00  0.00000000E+00
  0.00000000E+00  0.00000000E+00  0.00000000E+00
  0.00000000E+00  0.00000000E+00  0.00000000E+00
  0.00000000E+00  0.00000000E+00  0.00000000E+00
  0.00000000E+00  0.00000000E+00  0.00000000E+00
  0.00000000E+00  0.00000000E+00  0.00000000E+00
  0.00000000E+00  0.00000000E+00  0.00000000E+00
  0.00000000E+00  0.00000000E+00  0.00000000E+00
  0.00000000E+00  0.00000000E+00  0.00000000E+00
  0.00000000E+00  0.00000000E+00  0.00000000E+00
  0.00000000E+00  0.00000000E+00  0.00000000E+00
  0.00000000E+00  0.00000000E+00  0.00000000E+00
  0.00000000E+00  0.00000000E+00  0.00000000E+00
  0.00000000E+00  0.00000000E+00  0.00000000E+00
  0.00000000E+00  0.00000000E+00  0.00000000E+00
  0.00000000E+00  0.00000000E+00  0.00000000E+00
  0.00000000E+00  0.00000000E+00  0.00000000E+00
  0.00000000E+00  0.00000000E+00  0.00000000E+00
  0.00000000E+00  0.00000000E+00  0.00000000E+00
  0.00000000E+00  0.00000000E+00  0.00000000E+00
  0.00000000E+00  0.00000000E+00  0.00000000E+00
  0.00000000E+00  0.00000000E+00  0.00000000E+00
  0.00000000E+00  0.00000000E+00  0.00000000E+00
  0.00000000E+00  0.00000000E+00  0.00000000E+00
  0.00000000E+00  0.00000000E+00  0.00000000E+00
  0.00000000E+00  0.00000000E+00  0.00000000E+00
  0.00000000E+00  0.00000000E+00  0.00000000E+00
  0.00000000E+00  0.00000000E+00  0.00000000E+00
  0.00000000E+00  0.00000000E+00  0.00000000E+00
  0.00000000E+00  0.00000000E+00  0.00000000E+00
  0.00000000E+00  0.00000000E+00  0.00000000E+00
  0.00000000E+00  0.00000000E+00  0.00000000E+00
  0.00000000E+00  0.00000000E+00  0.00000000E+00
  0.00000000E+00  0.00000000E+00  0.00000000E+00
  0.00000000E+00  0.00000000E+00  0.00000000E+00
  0.00000000E+00  0.00000000E+00  0.00000000E+00
  0.00000000E+00  0.00000000E+00  0.00000000E+00
  0.00000000E+00  0.00000000E+00  0.00000000E+00
  0.00000000E+00  0.00000000E+00  0.00000000E+00
  0.00000000E+00  0.00000000E+00  0.00000000E+00
  0.00000000E+00  0.00000000E+00  0.00000000E+00
  0.00000000E+00  0.00000000E+00  0.00000000E+00
  0.00000000E+00  0.00000000E+00  0.00000000E+00
  0.00000000E+00  0.00000000E+00  0.00000000E+00
  0.00000000E+00  0.00000000E+00  0.00000000E+00
  0.00000000E+00  0.00000000E+00  0.00000000E+00
  0.00000000E+00  0.00000000E+00  0.00000000E+00
  0.00000000E+00  0.00000000E+00  0.00000000E+00
  0.00000000E+00  0.00000000E+00  0.00000000E+00
  0.00000000E+00  0.00000000E+00  0.00000000E+00
  0.00000000E+00  0.00000000E+00  0.00000000E+00
  0.00000000E+00  0.00000000E+00  0.00000000E+00
  0.00000000E+00  0.00000000E+00  0.00000000E+00
  0.00000000E+00  0.00000000E+00  0.00000000E+00
  0.00000000E+00  0.00000000E+00  0.00000000E+00
  0.00000000E+00  0.00000000E+00  0.00000000E+00
  0.00000000E+00  0.00000000E+00  0.00000000E+00
  0.00000000E+00  0.00000000E+00  0.00000000E+00
  0.00000000E+00  0.00000000E+00  0.00000000E+00
  0.00000000E+00  0.00000000E+00  0.00000000E+00
  0.00000000E+00  0.00000000E+00  0.00000000E+00
  0.00000000E+00  0.00000000E+00  0.00000000E+00
  0.00000000E+00  0.00000000E+00  0.00000000E+00
  0.00000000E+00  0.00000000E+00  0.00000000E+00
  0.00000000E+00  0.00000000E+00  0.00000000E+00
  0.00000000E+00  0.00000000E+00  0.00000000E+00
  0.00000000E+00  0.00000000E+00  0.00000000E+00
  0.00000000E+00  0.00000000E+00  0.00000000E+00
  0.00000000E+00  0.00000000E+00  0.00000000E+00
  0.00000000E+00  0.00000000E+00  0.00000000E+00
  0.00000000E+00  0.00000000E+00  0.00000000E+00
  0.00000000E+00  0.00000000E+00  0.00000000E+00
  0.00000000E+00  0.00000000E+00  0.00000000E+00
  0.00000000E+00  0.00000000E+00  0.00000000E+00
  0.00000000E+00  0.00000000E+00  0.00000000E+00
  0.00000000E+00  0.00000000E+00  0.00000000E+00
  0.00000000E+00  0.00000000E+00  0.00000000E+00
  0.00000000E+00  0.00000000E+00  0.00000000E+00
  0.00000000E+00  0.00000000E+00  0.00000000E+00
  0.00000000E+00  0.00000000E+00  0.00000000E+00
  0.00000000E+00  0.00000000E+00  0.00000000E+00
  0.00000000E+00  0.00000000E+00  0.00000000E+00
  0.00000000E+00  0.00000000E+00  0.00000000E+00
  0.00000000E+00  0.00000000E+00  0.00000000E+00
  0.00000000E+00  0.00000000E+00  0.00000000E+00
  0.00000000E+00  0.00000000E+00  0.00000000E+00
  0.00000000E+00  0.00000000E+00  0.00000000E+00
  0.00000000E+00  0.00000000E+00  0.00000000E+00
  0.00000000E+00  0.00000000E+00  0.00000000E+00
  0.00000000E+00  0.00000000E+00  0.00000000E+00
  0.00000000E+00  0.00000000E+00  0.00000000E+00
  0.00000000E+00  0.00000000E+00  0.00000000E+00
  0.00000000E+00  0.00000000E+00  0.00000000E+00
  0.00000000E+00  0.00000000E+00  0.00000000E+00
  0.00000000E+00  0.00000000E+00  0.00000000E+00
  0.00000000E+00  0.00000000E+00  0.00000000E+00
  0.00000000E+00  0.00000000E+00  0.00000000E+00
  0.00000000E+00  0.00000000E+00  0.00000000E+00
  0.00000000E+00  0.00000000E+00  0.00000000E+00
  0.00000000E+00  0.00000000E+00  0.00000000E+00
  0.00000000E+00  0.00000000E+00  0.00000000E+00
  0.00000000E+00  0.00000000E+00  0.00000000E+00
  0.00000000E+00  0.00000000E+00  0.00000000E+00
  0.00000000E+00  0.00000000E+00  0.00000000E+00
  0.00000000E+00  0.00000000E+00  0.00000000E+00
  0.00000000E+00  0.00000000E+00  0.00000000E+00
  0.00000000E+00  0.00000000E+00  0.00000000E+00
  0.00000000E+00  0.00000000E+00  0.00000000E+00
  0.00000000E+00  0.00000000E+00  0.00000000E+00
  0.00000000E+00  0.00000000E+00  0.00000000E+00
  0.00000000E+00  0.00000000E+00  0.00000000E+00
  0.00000000E+00  0.00000000E+00  0.00000000E+00
  0.00000000E+00  0.00000000E+00  0.00000000E+00
  0.00000000E+00  0.00000000E+00  0.00000000E+00
  0.00000000E+00  0.00000000E+00  0.00000000E+00
  0.00000000E+00  0.00000000E+00  0.00000000E+00
  0.00000000E+00  0.00000000E+00  0.00000000E+00
  0.00000000E+00  0.00000000E+00  0.00000000E+00
  0.00000000E+00  0.00000000E+00  0.00000000E+00
  0.00000000E+00  0.00000000E+00  0.00000000E+00
  0.00000000E+00  0.00000000E+00  0.00000000E+00
  0.00000000E+00  0.00000000E+00  0.00000000E+00
  0.00000000E+00  0.00000000E+00  0.00000000E+00
  0.00000000E+00  0.00000000E+00  0.00000000E+00
  0.00000000E+00  0.00000000E+00  0.00000000E+00
  0.00000000E+00  0.00000000E+00  0.00000000E+00
  0.00000000E+00  0.00000000E+00  0.00000000E+00
  0.00000000E+00  0.00000000E+00  0.00000000E+00
  0.00000000E+00  0.00000000E+00  0.00000000E+00
  0.00000000E+00  0.00000000E+00  0.00000000E+00
  0.00000000E+00  0.00000000E+00  0.00000000E+00
  0.00000000E+00  0.00000000E+00  0.00000000E+00
  0.00000000E+00  0.00000000E+00  0.00000000E+00
  0.00000000E+00  0.00000000E+00  0.00000000E+00
  0.00000000E+00  0.00000000E+00  0.00000000E+00
  0.00000000E+00  0.00000000E+00  0.00000000E+00
  0.00000000E+00  0.00000000E+00  0.00000000E+00
  0.00000000E+00  0.00000000E+00  0.00000000E+00
  0.00000000E+00  0.00000000E+00  0.00000000E+00
  0.00000000E+00  0.00000000E+00  0.00000000E+00
  0.00000000E+00  0.00000000E+00  0.00000000E+00
  0.00000000E+00  0.00000000E+00  0.00000000E+00
  0.00000000E+00  0.00000000E+00  0.00000000E+00
  0.00000000E+00  0.00000000E+00  0.00000000E+00
  0.00000000E+00  0.00000000E+00  0.00000000E+00
  0.00000000E+00  0.00000000E+00  0.00000000E+00
  0.00000000E+00  0.00000000E+00  0.00000000E+00
  0.00000000E+00  0.00000000E+00  0.00000000E+00
  0.00000000E+00  0.00000000E+00  0.00000000E+00
  0.00000000E+00  0.00000000E+00  0.00000000E+00
  0.00000000E+00  0.00000000E+00  0.00000000E+00
  0.00000000E+00  0.00000000E+00  0.00000000E+00
  0.00000000E+00  0.00000000E+00  0.00000000E+00
  0.00000000E+00  0.00000000E+00  0.00000000E+00
  0.00000000E+00  0.00000000E+00  0.00000000E+00
  0.00000000E+00  0.00000000E+00  0.00000000E+00
  0.00000000E+00  0.00000000E+00  0.00000000E+00
  0.00000000E+00  0.00000000E+00  0.00000000E+00
  0.00000000E+00  0.00000000E+00  0.00000000E+00
  0.00000000E+00  0.00000000E+00  0.00000000E+00
  0.00000000E+00  0.00000000E+00  0.00000000E+00
  0.00000000E+00  0.00000000E+00  0.00000000E+00
