10.0% N(Distort)=1 ~[0.5,0.5,0.5]
1.0
  12.5998379999999983    0.0000000000000004    0.0000000000000004
   0.0000000000000004   12.5998379999999983   -0.0000000000000004
  -0.0000000000000004   -0.0000000000000004   12.5998379999999983
Mg O
109 107
direct
   0.6719359826099596    0.0164400566803896   -0.0025562813959436 Mg
   0.8333333333333333    0.1666666666666667    1.0000000000000000 Mg
   0.8356993213461827    1.0223522002184962    0.1641323011046227 Mg
   0.3224763702131981    0.0044599364366762   -0.0124259056236310 Mg
   0.5248438668437096    0.1340167727506748    0.0208845527956899 Mg
   0.6714935292382217    0.3457211772833228   -0.0209526067947342 Mg
   0.8290737230186719    0.5128489518682409    0.9753351773185092 Mg
   0.4916111432182905   -0.0188535355206976    0.1598155402881129 Mg
   0.6678441349996687    0.1610208860998654    0.1570750534364992 Mg
   0.8398290960954995    0.3139069218633367    0.1559451496808327 Mg
   0.6529922647312478   -0.0208375328663862    0.3414634871060681 Mg
   0.8438246691581212    0.1716541174583936    0.3327292400717576 Mg
   0.8272948733419782    0.9957104694625953    0.5075950396061583 Mg
   0.0213385213358378   -0.0104389900592519   -0.0159642262614925 Mg
   0.1738330860405863    0.1604449014626684    0.0222514026378674 Mg
   0.3445086599877208    0.3398650792342889   -0.0018258863128983 Mg
   0.5175686901471532    0.4831553207524028   -0.0051952251219566 Mg
   0.6518033820897106    0.6727474329871764    0.0227075764064646 Mg
   0.8055333413169614    0.8354799854733441   -0.0235047665460147 Mg
   0.1826387517477241    0.0070864921387989    0.1822851982186216 Mg
   0.3217289330276045    0.1737288245243476    0.1755893241350447 Mg
   0.4895737466053772    0.3269364526749223    0.1469752626387115 Mg
   0.6892034008866412    0.4956156445349955    0.1443390316083256 Mg
   0.8595531779824016    0.6837198748693329    0.1526261531455414 Mg
   0.3301874750611034    0.0284846560713057    0.3431095802288810 Mg
   0.5031434626438053    0.1759810755635341    0.3294769297912727 Mg
   0.6649307338791326    0.3440459427985940    0.3536609140464707 Mg
   0.8317169651703564    0.4955208009685818    0.3359702075269573 Mg
   0.5070251136798115   -0.0029668203817026    0.5153368278692316 Mg
   0.6614577467350591    0.1869186612949575    0.5286613036804330 Mg
   0.8017216140682740    0.3612111957869491    0.4694840588432075 Mg
   0.6372385869456160    0.0075978931896780    0.6726753906097370 Mg
   0.8162621656422656    0.1980338582333993    0.6627357747048523 Mg
   0.8347637125984989   -0.0009145338232603    0.8381076589311294 Mg
   0.0099705640273570    0.3205099049622320    1.0091345255674078 Mg
   0.1745998374736627    0.5008994494499590    0.0013150262474144 Mg
   0.3556559383724570    0.6510189735301566    1.0270757039734539 Mg
   0.5029938664623095    0.8383859351690671    0.0092066456856924 Mg
  -0.0134917912233384    0.1853725330025255    0.1680444197561091 Mg
   0.1637909376602388    0.3357570491256178    0.1606992501503866 Mg
   0.3315884375839953    0.5304117974172549    0.1709967120607666 Mg
   0.5122493078486916    0.6479698802210372    0.1482212640325313 Mg
   0.6453462941227790    0.8428787095132391    0.1674486229667467 Mg
   1.0022045572181026    1.0136361513696754    0.3489139888359049 Mg
   0.1751530197325634    0.1534607462110884    0.3471892713259130 Mg
   0.3111035415962229    0.3256332399399045    0.3240781706289484 Mg
   0.4852595923746526    0.4858635686290003    0.3031321841618090 Mg
   0.6557642678601986    0.6926233385400800    0.3512106699779224 Mg
   0.8299334140777126    0.8436406995678402    0.3513220827067979 Mg
   0.1740377394579213    0.0148892485098549    0.4694205512589128 Mg
   0.3307184468935885    0.1551041137159543    0.5095853880571897 Mg
   0.4941863108719632    0.3116986720134099    0.4778781216213971 Mg
   0.6873051240524217    0.4792087025013111    0.5138870848698449 Mg
   0.8187803611404224    0.6677015267809475    0.5105672460270253 Mg
   0.3249174848489656    1.0090380580110823    0.6798246883355082 Mg
   0.5138301646071447    0.1578054395516655    0.6657321062330617 Mg
   0.6825292639768522    0.3446253215298624    0.6809951529674279 Mg
   0.8558911484737861    0.4929612042916935    0.6662025174469475 Mg
   0.4943800210115940   -0.0270223376504325    0.8577595877623170 Mg
   0.6878531672894082    0.1767905458198799    0.8335794601628709 Mg
   0.8415462821564557    0.3257440342607751    0.8537818389069638 Mg
   0.0142899553101261    0.6741103022426900    0.9885472211919141 Mg
   0.1835738670154643    0.8428343042492589   -0.0009035141214921 Mg
  -0.0122148908303570    0.4961086773296436    0.1643913451650649 Mg
   0.1475756616755017    0.6687165128435347    0.1633399922850681 Mg
   0.3545834646618851    0.8322336024504293    0.1846353764439277 Mg
   0.0037253095308785    0.3461775801420204    0.3201643025240403 Mg
   0.1413421382158671    0.5067284045446881    0.3138156584106290 Mg
   0.3461467734990464    0.6540211801207115    0.3400936941186301 Mg
   0.5171559992319743    0.8517904595174757    0.3127959427266799 Mg
  -0.0066865730306358    0.1873560974449167    0.4789644478163778 Mg
   0.1714869733968795    0.3593629479223284    0.4760683256863580 Mg
   0.3253923015319715    0.4774582214384844    0.5165814674482794 Mg
   0.4937741221211435    0.6491690791713579    0.4659151865878115 Mg
   0.6597101493546611    0.8344042570373666    0.5035130336876458 Mg
   0.9877673824403150    0.9945958835560280    0.6486975561574427 Mg
   0.1514289548802463    0.1836299448861788    0.6498733451687424 Mg
   0.3164696816925634    0.3176691003541599    0.6362347415288981 Mg
   0.5144489880782976    0.4909548866382435    0.6656861552594113 Mg
   0.6726280975973121    0.6847019452862206    0.6563937201689349 Mg
   0.8175851419049845    0.8118262841305486    0.6716464185713567 Mg
   0.1614502252949347    0.0063525044003142    0.8542530911785327 Mg
   0.3423487493060142    0.1810148857935713    0.8211335351320211 Mg
   0.4999961025926318    0.3578021425309009    0.8323627128391338 Mg
   0.6536413864377789    0.4945153505675532    0.8116160314000408 Mg
   0.8420705696662494    0.6739541730106836    0.8260276215946644 Mg
   0.9942534716575314    0.8164264071561010    0.1705554422670444 Mg
  -0.0077112939210970    0.6809647696143858    0.3391733738056193 Mg
   0.1492715787325891    0.8194139780089139    0.3133978881143419 Mg
  -0.0172329947887870    0.4835630789283671    0.4957376933044030 Mg
   0.1876183908258185    0.6676321482511639    0.5059525709035718 Mg
   0.3455728550052000    0.8276422806114166    0.5232257011983452 Mg
   0.9973661472947606    0.3226967305306057    0.6705285686497026 Mg
   0.1498749796738240    0.5068180972037928    0.6560233857181823 Mg
   0.3518985831527884    0.6656590343237714    0.6890221362547264 Mg
   0.5082059670304141    0.8411700541929316    0.6748588050551041 Mg
  -0.0068808667082832    0.1605853998757389    0.8396848711192811 Mg
   0.1633177866888049    0.3356728954896880    0.8310951622073476 Mg
   0.3366948583368415    0.5381712530099612    0.8342572259859955 Mg
   0.4868956855396389    0.6594393360736355    0.8227247004442555 Mg
   0.6626951615638064    0.8335593670008875    0.8510413734256564 Mg
   0.9906299794436109    0.8351092446461542    0.4872847845851077 Mg
   0.0025945841084529    0.6571383687449106    0.6627849759102408 Mg
   0.1534656908674678    0.8197472006964833    0.6880756697991532 Mg
  -0.0045573542975602    0.4798535452024119    0.8343335402739170 Mg
   0.1500523963957392    0.6534439667995282    0.8178132620244981 Mg
   0.3478337628257665    0.8319216301574651    0.8451435435300921 Mg
   0.0130857093397868    0.8451923789587764    0.8158144320146481 Mg
   0.4951556917461578    0.4669491314853220    0.4916472262078399 Mg
   0.8333333333333333    0.1666666666666667    0.1833356905064970 O
  -0.0112946872536598    0.3430405958270884    0.1598411597277479 O
  -0.0040277836802346    0.1636008904446737    0.3314028778511748 O
   0.4890489138714345    0.1497928593106350    0.1747803156815999 O
   0.6624921345006273    0.3274486551958014    0.1855373923563756 O
   0.8449567764931595    0.4831301294690463    0.1616468041957882 O
  -0.0073892836637119    0.6566038045099754    0.1658791736230838 O
   0.6688643700266764    0.1444278247425066    0.3535942745127461 O
   0.8148507954502059    0.3092832196172364    0.3240324059425048 O
   0.0147873234606556    0.4889994762393956    0.3501447748838146 O
   0.8213430727759439    0.1821596131247639    0.5180586289840603 O
   0.0027738491999697    0.3525426365222493    0.4933197095780569 O
  -0.0065363302961052    0.1481374719276897    0.6630421290128594 O
   0.1579194241045153    0.1765281295384186    0.1730780183696011 O
   0.3431335590403511    0.3254736235196687    0.1590213545373798 O
   0.5275629996102924    0.4945461390415953    0.1429590784320154 O
   0.6763548117287371    0.6718863851997376    0.1859386284724145 O
   0.8142713105092555    0.8251116472341770    0.1628023981199497 O
   0.0003511299995769    0.0082279416437910    0.1747888240050699 O
   0.3204889880651025    0.1788359839710113    0.3387389008629751 O
   0.4857430392721830    0.3309164844350110    0.3413165139680459 O
   0.6468807465556545    0.5040828021791343    0.3244476521554916 O
   0.8516400211946777    0.6738596896415217    0.3193027482013107 O
   0.0284587551814710    0.8232526679887253    0.3482456000188374 O
   0.5120228914217965    0.1727656583561365    0.4861865334450975 O
   0.6843541223562092    0.3242335521574817    0.5259898970775281 O
   0.8426266581042337    0.5005188624202562    0.5084975891918028 O
   0.0143282126201413    0.6921047424537452    0.4875965219464307 O
   0.6617210479124098    0.1671678090385220    0.6671929303013435 O
   0.8413203405593925    0.3283677234340063    0.6527221444054760 O
   0.0129759874549532    0.5159784866673734    0.6698214476378372 O
   0.8317275939900424    0.1611885349046499    0.8242972149264695 O
  -0.0381864026619175    0.3594046337725614    0.8150739327554295 O
  -0.0061718548266758    0.1833250008870587   -0.0096510599362461 O
   0.1833262220115901    0.4654057887959634    0.1785030057782544 O
   0.3105667760118931    0.6665839429823847    0.1617720481155758 O
   0.4938290578308034    0.8148030700409565    0.1642713606517938 O
   0.6788361363661476   -0.0089568738186844    0.1681192304080213 O
   0.1635331831697071    0.3489226550861574    0.3051341409083657 O
   0.3574112622388301    0.4816232554313049    0.3123566531338471 O
   0.4896734732737362    0.6766787174954807    0.3187513690485156 O
   0.6818645993667989    0.8346427113752851    0.3405114549864718 O
   0.8212890302861032   -0.0130396419378709    0.3505215730772125 O
   0.1710945606936192    0.1559535196582454    0.5030531095211438 O
   0.3441930207759835    0.3158061328172334    0.4991219810006546 O
   0.6426449544250483    0.6652091597988740    0.4957788143062933 O
   0.8431787732215870    0.8399829639050327    0.4972601773152560 O
  -0.0192178513693595   -0.0319750877006427    0.5090979760105403 O
   0.3244034175015384    0.1414897855946994    0.6554569058611073 O
   0.5052670777632712    0.3432594822272175    0.6355500412463432 O
   0.6491150011482818    0.4893491235785856    0.6503828276261966 O
   0.8281901462265638    0.6692357950621096    0.6568307417907213 O
   0.0125238863951146    0.8250200961818087    0.6703516131010163 O
   0.5032318103812867    0.1789205433925659    0.8372110881341546 O
   0.6696312268818423    0.3418961407448206    0.8377403053649746 O
   0.8507253111032378    0.5222577906257075    0.8327466027730679 O
   0.0039030856929489    0.6762375686193444    0.8393640785308220 O
   0.6859107044707090    0.1690552306438470    0.0190265329539666 O
   0.8124203212835713    0.3340860815280817   -0.0054763896592791 O
  -0.0000718310601425    0.4974056621372945    0.0045355898898801 O
   0.1681823546472481    0.8210601316790325    0.1696880957378841 O
   0.3380800438387945    0.0104548638310113    0.1565623595462839 O
   0.1614306538404790    0.6550198823413693    0.3664384019660392 O
   0.2990557434725371    0.8434304571877953    0.3096463951722195 O
   0.5189310627892397    0.0001189264804284    0.3404044248299011 O
   0.1471772161328791    0.5065577598734908    0.5052440866973057 O
   0.3214392670707606    0.6699753278358150    0.5066002373180125 O
   0.5087175674737819    0.8369355472041529    0.5084364412091331 O
   0.6824756732776710    0.0079634925022225    0.5093715768114985 O
   0.1640640071439974    0.3376536170938209    0.6650108777452844 O
   0.3008302375730921    0.5152265635632906    0.6820381101216730 O
   0.4988135380144664    0.6473406114447756    0.6640554922569756 O
   0.6581564897577699    0.8453588532006673    0.6697106869519753 O
   0.8445904660915232    0.0181605276407327    0.6798284977042903 O
   0.1730465471091866    0.1725268798914277    0.8412969394027017 O
   0.3332544328693902    0.3252211173333571    0.8193479474184031 O
   0.5126878295790878    0.5110085976268606    0.8470922333747639 O
   0.6621604923066085    0.6631413257144636    0.8393022668550703 O
   0.8680122505259075    0.8556649128043159    0.8188465959030129 O
  -0.0001513757592394   -0.0273768590092407    0.8162636531821738 O
   0.3288178611573647    0.1684975909181972    0.0069707684222172 O
   0.4939509387463942    0.3523226147503056   -0.0149499505820847 O
   0.6565022023870994    0.5045674904106699   -0.0035575181919879 O
   0.8350764319384254    0.6828038679055971    0.0117907363820598 O
  -0.0224767203888918    0.8289257257563623   -0.0056981393807026 O
   0.1737326916733335   -0.0093837016354730    0.3214694078506843 O
   0.1832722085393906    0.8132740112371786    0.5061922759533769 O
   0.3550301242925958   -0.0078347303353024    0.5067314294278628 O
   0.1688078360481426    0.6687955976712788    0.6865136343129981 O
   0.3336479287758599    0.8501501715974035    0.6740282051452482 O
   0.5060766435184577   -0.0169108548275206    0.6733409452703729 O
   0.1692313719693397    0.4886200375549134    0.8519751461387006 O
   0.3256232631886214    0.6892263457704620    0.8197621594043376 O
   0.5116171587792182    0.8226142709051952    0.8796415419712276 O
   0.6756854010054548    0.0151203407271693    0.8425387880623461 O
   0.1638704212272818    0.3309651228387642    0.0159662326543710 O
   0.3183427855180224    0.4914770685120392   -0.0044274052897964 O
   0.5233124538808246    0.6667867746988201   -0.0178121539985677 O
   0.6626614499009674    0.8921283292237784   -0.0215653755304717 O
   0.8226249425207879    0.0371048912419505   -0.0012837202936239 O
   0.1724843102161345   -0.0221423696085073    0.6750324564477920 O
   0.1693052414589969    0.8543014559013169    0.8179403945780385 O
   0.3110077910015178   -0.0138316046461872    0.8235373241814512 O
   0.1756488627947921    0.6599745070060880   -0.0252346640438517 O
   0.3433678790605320    0.8436206512478085   -0.0122037897577353 O
   0.4850488255906676   -0.0150205241584432    0.0151544711855841 O
   0.1701654439773030    0.0098385038232877    0.0398017287017005 O
