KPOINTS from doped, with reciprocal_density = 155/Å⁻³
0
Gamma
10 10 6
