50.0% N(Distort)=4 ~[0.5,0.5,0.5]       
   1.00000000000000     
    12.5998379999999983    0.0000000000000004    0.0000000000000004
     0.0000000000000004   12.5998379999999983   -0.0000000000000004
    -0.0000000000000004   -0.0000000000000004   12.5998379999999983
   Mg   O 
   109   107
Direct
  0.6668420116828391 -0.0007347327677509  0.0007230688787872
  0.8334915738408721  0.1655765388773872  0.0006582821095571
  0.8335020499321456 -0.0007856294163416  0.1670234443160584
  0.3326019171052794 -0.0006533305707984  0.0008087502179941
  0.4997607031200512  0.1647043024721128  0.0023365206420680
  0.6672669890600107  0.3320142293792082  0.0017812219965407
  0.8337468518693520  0.4990980299747032  0.0008452953302786
  0.4997534119570496  0.0008223418370543  0.1661567476391954
  0.6671247445879255  0.1651114031847769  0.1665911347981428
  0.8342659720197331  0.3317800379599787  0.1665552380666560
  0.6672407464167417  0.0003115076369602  0.3334646205498834
  0.8342843127259764  0.1650621546248925  0.3332409933635566
  0.8337775587874170 -0.0005882036204672  0.5005433143837972
 -0.0002423280049688 -0.0007065094922003  0.0007325979426583
  0.1661583219426532  0.1656702940296604  0.0011524814483615
  0.3324115451239191  0.3319352348032447  0.0026582419299878
  0.4995237120758836  0.4990566330744997  0.0052630922179808
  0.6666996884377488  0.6662283409819457  0.0016486837794750
  0.8333341053580019  0.8328770892999914  0.0006512324865925
  0.1661597466396166 -0.0003277645552938  0.1671381095510979
  0.3327990736786778  0.1661411015707121  0.1675775088849750
  0.4998067817720702  0.3319710560621045  0.1676526932037250
  0.6678618719473421  0.4990406869849764  0.1661758300858517
  0.8335729565230626  0.6666239397384059  0.1665793614443440
  0.3323900351580089  0.0012079522946418  0.3333835605899818
  0.4997924785711743  0.1662039160769282  0.3334201643217649
  0.6671827677951058  0.3285215202669635  0.3300062061510144
  0.8411123413462830  0.4994237149690636  0.3275375286423378
  0.4995258573810291  0.0037674430230626  0.5004896686176232
  0.6678628690764775  0.1646790990739802  0.5004902922348349
  0.8410939902856330  0.3260585529316350  0.5008338380429056
  0.6667000606855327  0.0001606807472328  0.6676685232107656
  0.8335853412405533  0.1650890079918046  0.6680694767784144
  0.8333295565036486 -0.0007974676842095  0.8343119262005220
 -0.0001922464995142  0.3320956510220728  0.0008143617893858
  0.1651365943510692  0.4992643046675907  0.0023415639774898
  0.3324675598236503  0.6667729521380371  0.0018079626402178
  0.4995660948387440  0.8332834554292002  0.0008639773611462
  0.0001405544187200  0.1656806998921966  0.1671371294894917
  0.1666197105850242  0.3323073425639829  0.1675925060299655
  0.3324564011047928  0.4993126599554494  0.1676571486215120
  0.4995184067938035  0.6673645354150943  0.1662081064086382
  0.6670618110122718  0.8331249734446506  0.1665774845030981
 -0.0001680101489259 -0.0006392858238481  0.3335746455966337
  0.1666284767301294  0.1661355134241534  0.3337729127881440
  0.3332118616501758  0.3327223031064334  0.3341619074861050
  0.4997794607813784  0.4993113406710911  0.3307562610214567
  0.6666477832824461  0.6661842602767220  0.3324024712548803
  0.8333517459808754  0.8329170026617890  0.3334604382000119
  0.1651656175810871  0.0008612875308674  0.5007808115937296
  0.3324841876967929  0.1662019891862259  0.5007506597306826
  0.4997798262348359  0.3293086908375756  0.5007350970536198
  0.6990959627243235  0.4805686240066890  0.4820207589010240
  0.8366853146767201  0.6666963983307018  0.5002608418980565
  0.3325024569255374  0.0002956134279934  0.6682642455337600
  0.4995139687564483  0.1647137063884407  0.6688157253459535
  0.6666608218198425  0.3309102167150098  0.6676147955319547
  0.8367009514669327  0.4988124635566001  0.6680920951424424
  0.4995802302881752 -0.0005999619378047  0.8347559708024918
  0.6670678270278462  0.1650939545110322  0.8345854534398961
  0.8333353456821536  0.3319871527074458  0.8343262908554714
 -0.0002805150150623  0.6663809454991367  0.0007309518844882
  0.1660446010945805  0.8330317231339619  0.0006764267788469
  0.0013101258531671  0.4993013693337023  0.1661517429857943
  0.1655859324775379  0.6666574286259581  0.1666064164966061
  0.3322604730402947  0.8337818852628842  0.1665673098239062
  0.0017039601850247  0.3319114339001781  0.3333741050417155
  0.1666826258270676  0.4993164675772557  0.3334175445459495
  0.3289982127628853  0.6667019110082656  0.3300348062568805
  0.4998605356352122  0.8405929646899717  0.3275864140621307
  0.0013598878025158  0.1646590181125343  0.5007629186182986
  0.1666805591175057  0.3319597807634435  0.5007613324918897
  0.3297904410738248  0.4993030373340107  0.5007482909438489
  0.4809925773646032  0.6985275455455879  0.4821445535583416
  0.6671417058262464  0.8362102222154594  0.5002571291509385
 -0.0002501606642902  0.9992698779802511  0.6678591317283891
  0.1656241316781646  0.1651148635596699  0.6681352320689429
  0.3290160093685057  0.3285421080565477  0.6681449669749983
  0.4810545781053803  0.4806436636969709  0.7000490188962030
  0.6725655750817982  0.6720729876084027  0.6734956988274642
  0.8343842610489318  0.8339179361850435  0.6675853723509428
  0.1660779011944374 -0.0007956363801848  0.8345139499077775
  0.3322936068273312  0.1650950057928295  0.8352621958070141
  0.4999027397018097  0.3260957113036820  0.8420139596318869
  0.6671568702265529  0.4988244144520008  0.8376771471816440
  0.8343937026716816  0.6661260893346130  0.8354009944727834
 -0.0003222743543945  0.8330538749527134  0.1670328724327459
  0.0007766528234735  0.6668125954689177  0.3334770762638162
  0.1655661701969043  0.8337944406349264  0.3332633471479305
  0.0042851153932018  0.4990471894513347  0.5004921416642111
  0.1651563668485838  0.6673741394818667  0.5004997933895386
  0.3265262512353732  0.8406065444916929  0.5008708075165273
  0.0007956489724352  0.3319813756802306  0.6682467667673003
  0.1651698491723343  0.4990301900414527  0.6688468816449422
  0.3313272096272046  0.6661548501596452  0.6676308119192293
  0.4993012399162653  0.8361990298210140  0.6681213303386465
 -0.0003078399768438  0.1655504055376982  0.8345192255599222
  0.1655566280526833  0.3317729934239861  0.8352711007021768
  0.3265597908463574  0.4994099923834789  0.8420703582247913
  0.4992982710420166  0.6666704047084502  0.8376881646971244
  0.6666059684812783  0.8339026808006823  0.8354018528688584
 -0.0001236473981600  0.8333150436616040  0.5005470718596055
  0.0006160641429313  0.6662297652207690  0.6676785057749284
  0.1655730072995053  0.8331004579162836  0.6681129272739265
 -0.0001310630920858  0.4990616071497332  0.8347631279856718
  0.1655566555732375  0.6665819354478962  0.8346166656937574
  0.3325076431678060  0.8328540646146300  0.8343336756226264
 -0.0003289126499991  0.8328701193884327  0.8343235709846060
  0.5564850506661266  0.5558929466459162  0.5573635337313315
  0.8333894007767464  0.1658714032481079  0.1674084530341379
  0.0002450642258270  0.3326314553776747  0.1674608463728655
  0.0002643450824972  0.1659194512396274  0.3341657080883312
  0.5000285599232941  0.1664030323654375  0.1679192205203719
  0.6669778949327871  0.3322324621093015  0.1672059224352605
  0.8343810841144552  0.4992178009407806  0.1663208051489329
 -0.0003999864440322  0.6660282199036121  0.1673228375825809
  0.6669893467957954  0.1656871380869387  0.3337358719178157
  0.8340532389863785  0.3331501895583492  0.3346416612374577
  0.0024283877336771  0.4993741856277234  0.3331055738812331
  0.8343931716696446  0.1648309164882681  0.5007208897967527
  0.0024077424013433  0.3316110969950438  0.5008315283060357
 -0.0003571307364433  0.1657956053191257  0.6675519587810839
  0.1666503327084421  0.1661377677478858  0.1676587159690606
  0.3335049255754873  0.3330037991918922  0.1685396098033775
  0.5001876065116855  0.4997039962932504  0.1685672124691138
  0.6664255410349862  0.6659142111003412  0.1678563150261939
  0.8328818755346201  0.8324165332906334  0.1674965140186222
 -0.0002560660444286 -0.0007358154868826  0.1673830896761838
  0.3334958181154616  0.1670590141225731  0.3344974704347031
  0.5007314330574907  0.3336809015528164  0.3351675585204332
  0.6691996612388619  0.4979764519644918  0.3311465234820175
  0.8327474926777301  0.6650579742857845  0.3349047295195385
 -0.0005434978843173  0.8326824170576290  0.3341186932606646
  0.5002055756454743  0.1670596092018213  0.5011857386702385
  0.6691723067380432  0.3296797040045106  0.4994446220367322
  0.8445854413954909  0.4983341050315365  0.4997857127421031
  0.0008442836550277  0.6664530187711464  0.5007042713908698
  0.6664040393251793  0.1663381344626340  0.6674304606381146
  0.8327736634512067  0.3333891358939690  0.6665150693846016
  0.0008361212343325  0.4991609859666395  0.6679273262650304
  0.8328763527368572  0.1659785583641530  0.8339028984379679
 -0.0005578909837633  0.3325688354153528  0.8341776347981863
 -0.0002561632558217  0.1658633500660003  0.0007810852862193
  0.1668996016874713  0.4995167830457498  0.1679190657133813
  0.3327054496523986  0.6664798272537679  0.1672259631893850
  0.4997098359440701  0.8338654561221038  0.1663426869643468
  0.6665019912692680 -0.0008817423877744  0.1673352034022987
  0.1675604294094266  0.3330004383126661  0.3344874195972155
  0.3341815003332874  0.5002240751054816  0.3351712657601096
  0.4984591041162290  0.6687023276819989  0.3312142261497841
  0.6655072112686002  0.8322606724692286  0.3348951139494956
  0.8331531864781871 -0.0010235459483938  0.3341213968191268
  0.1669333105885160  0.1664059504807813  0.5010647168659526
  0.3342047395634578  0.3336893474050255  0.5017045713704911
  0.6597313408539808  0.6591954314627202  0.5009765114518271
  0.8317309052382569  0.8312619148085348  0.5007696717034438
 -0.0004244590114088 -0.0009232638319596  0.5008328618472861
  0.3327624882861297  0.1656999667284386  0.6680045440522282
  0.4984668072880806  0.3297340197141181  0.6701398462904679
  0.6597441956138437  0.4994862569154587  0.6606015582549615
  0.8329900888945344  0.6650092794373241  0.6664751342390912
 -0.0005096392097205  0.8324043166930584  0.6673164274347767
  0.4997489785997758  0.1648527816102620  0.8353737673874468
  0.6655205248960959  0.3334168525678488  0.8337445005354872
  0.8317275991836662  0.4992614985350692  0.8327086429328913
 -0.0005237982715337  0.6657695632878229  0.8339224269648028
  0.6665022481398588  0.1658074958957069  0.0006539528404569
  0.8331378810677732  0.3325770105093473  0.0004807143297062
 -0.0004728732629770  0.4992800270641865  0.0005790347420736
  0.1663576959855421  0.8329129478198856  0.1674131464704049
  0.3331313135428984 -0.0002501171208684  0.1674593164975190
  0.1661826342368555  0.6664993186782494  0.3337263896059990
  0.3336297718666348  0.8335489074732723  0.3346682182855959
  0.4998270400684076  0.0019295537402873  0.3331093597180539
  0.1675635532134769  0.4996945473104951  0.5011858489056985
  0.3300926546749070  0.6686736528436140  0.4994640680700051
  0.4987952254491993  0.8440435386001701  0.4997878107875786
  0.6669425461031270  0.0003525835263576  0.5006847901513914
  0.1662098107508268  0.3322262793490405  0.6679932984021096
  0.3301703283276734  0.4980019983813168  0.6701539058127417
  0.4999629822874463  0.6592045423560376  0.6605699893920601
  0.6654772796926020  0.8324705593549407  0.6664741253973402
  0.8328720332179321 -0.0009911250877986  0.6672944129433775
  0.1664137501257296  0.1658841313234314  0.8344270757196004
  0.3336603714248448  0.3331819664036065  0.8350276057915014
  0.4988367181129645  0.4983555375606620  0.8455173273053360
  0.6654747600069020  0.6649883129701017  0.8339495746623150
  0.8324947833517758  0.8320266556027043  0.8335208332509053
 -0.0004224588558921  0.9990730331050880  0.8340653439290159
  0.3331581404925519  0.1659433190835007  0.0012578198256320
  0.4998419549985030  0.3316540764758023  0.0033920232022892
  0.6669202856451903  0.4991922974242987  0.0018343393841423
  0.8328633092613666  0.6657880126345520  0.0005044120421993
  0.9995525694845472  0.8325425163145659  0.0005818772461046
  0.1664293905951324  0.9997543208490770  0.3341744431544912
  0.1653013062232330  0.8338873899594532  0.5007694138367103
  0.3321154413307247  0.0019099275049253  0.5008626290736592
  0.1667853330211877  0.6658993892373329  0.6674775768564375
  0.3339170862584594  0.8322356228080555  0.6665464667829150
  0.4996902277367530  0.0003385635393973  0.6679173345002578
  0.1653147217422284  0.4992084409269425  0.8354028856087836
  0.3339083377783207  0.6650059639545861  0.8337672258697080
  0.4997765780803402  0.8312231048721340  0.8327433832408293
  0.6662647650403744 -0.0010064923210463  0.8338974529535116
  0.1664444086409576  0.3326132924465003  0.0012626462542709
  0.3321068467121336  0.4993599216772005  0.0034060539445906
  0.4996697533375860  0.6664400068735359  0.0018666053426905
  0.6662647523271997  0.8323888703176529  0.0005160422247807
  0.8330216362972324 -0.0009251956649961  0.0005760016986545
  0.1663300823472326  0.9991243590776920  0.6675693836630598
  0.1664892519388569  0.8323815288668636  0.8339367593106337
  0.3331192641204820  0.9989475693114481  0.8341892021758870
  0.1662845260095548  0.6660028956766729  0.0006724720535287
  0.3330781718073674  0.8326388087852403  0.0004886988307731
  0.4997864134712069 -0.0009406277357747  0.0005847028636578
  0.1663782465681100 -0.0007421411669988  0.0007826389607219
 
  0.00000000E+00  0.00000000E+00  0.00000000E+00
  0.00000000E+00  0.00000000E+00  0.00000000E+00
  0.00000000E+00  0.00000000E+00  0.00000000E+00
  0.00000000E+00  0.00000000E+00  0.00000000E+00
  0.00000000E+00  0.00000000E+00  0.00000000E+00
  0.00000000E+00  0.00000000E+00  0.00000000E+00
  0.00000000E+00  0.00000000E+00  0.00000000E+00
  0.00000000E+00  0.00000000E+00  0.00000000E+00
  0.00000000E+00  0.00000000E+00  0.00000000E+00
  0.00000000E+00  0.00000000E+00  0.00000000E+00
  0.00000000E+00  0.00000000E+00  0.00000000E+00
  0.00000000E+00  0.00000000E+00  0.00000000E+00
  0.00000000E+00  0.00000000E+00  0.00000000E+00
  0.00000000E+00  0.00000000E+00  0.00000000E+00
  0.00000000E+00  0.00000000E+00  0.00000000E+00
  0.00000000E+00  0.00000000E+00  0.00000000E+00
  0.00000000E+00  0.00000000E+00  0.00000000E+00
  0.00000000E+00  0.00000000E+00  0.00000000E+00
  0.00000000E+00  0.00000000E+00  0.00000000E+00
  0.00000000E+00  0.00000000E+00  0.00000000E+00
  0.00000000E+00  0.00000000E+00  0.00000000E+00
  0.00000000E+00  0.00000000E+00  0.00000000E+00
  0.00000000E+00  0.00000000E+00  0.00000000E+00
  0.00000000E+00  0.00000000E+00  0.00000000E+00
  0.00000000E+00  0.00000000E+00  0.00000000E+00
  0.00000000E+00  0.00000000E+00  0.00000000E+00
  0.00000000E+00  0.00000000E+00  0.00000000E+00
  0.00000000E+00  0.00000000E+00  0.00000000E+00
  0.00000000E+00  0.00000000E+00  0.00000000E+00
  0.00000000E+00  0.00000000E+00  0.00000000E+00
  0.00000000E+00  0.00000000E+00  0.00000000E+00
  0.00000000E+00  0.00000000E+00  0.00000000E+00
  0.00000000E+00  0.00000000E+00  0.00000000E+00
  0.00000000E+00  0.00000000E+00  0.00000000E+00
  0.00000000E+00  0.00000000E+00  0.00000000E+00
  0.00000000E+00  0.00000000E+00  0.00000000E+00
  0.00000000E+00  0.00000000E+00  0.00000000E+00
  0.00000000E+00  0.00000000E+00  0.00000000E+00
  0.00000000E+00  0.00000000E+00  0.00000000E+00
  0.00000000E+00  0.00000000E+00  0.00000000E+00
  0.00000000E+00  0.00000000E+00  0.00000000E+00
  0.00000000E+00  0.00000000E+00  0.00000000E+00
  0.00000000E+00  0.00000000E+00  0.00000000E+00
  0.00000000E+00  0.00000000E+00  0.00000000E+00
  0.00000000E+00  0.00000000E+00  0.00000000E+00
  0.00000000E+00  0.00000000E+00  0.00000000E+00
  0.00000000E+00  0.00000000E+00  0.00000000E+00
  0.00000000E+00  0.00000000E+00  0.00000000E+00
  0.00000000E+00  0.00000000E+00  0.00000000E+00
  0.00000000E+00  0.00000000E+00  0.00000000E+00
  0.00000000E+00  0.00000000E+00  0.00000000E+00
  0.00000000E+00  0.00000000E+00  0.00000000E+00
  0.00000000E+00  0.00000000E+00  0.00000000E+00
  0.00000000E+00  0.00000000E+00  0.00000000E+00
  0.00000000E+00  0.00000000E+00  0.00000000E+00
  0.00000000E+00  0.00000000E+00  0.00000000E+00
  0.00000000E+00  0.00000000E+00  0.00000000E+00
  0.00000000E+00  0.00000000E+00  0.00000000E+00
  0.00000000E+00  0.00000000E+00  0.00000000E+00
  0.00000000E+00  0.00000000E+00  0.00000000E+00
  0.00000000E+00  0.00000000E+00  0.00000000E+00
  0.00000000E+00  0.00000000E+00  0.00000000E+00
  0.00000000E+00  0.00000000E+00  0.00000000E+00
  0.00000000E+00  0.00000000E+00  0.00000000E+00
  0.00000000E+00  0.00000000E+00  0.00000000E+00
  0.00000000E+00  0.00000000E+00  0.00000000E+00
  0.00000000E+00  0.00000000E+00  0.00000000E+00
  0.00000000E+00  0.00000000E+00  0.00000000E+00
  0.00000000E+00  0.00000000E+00  0.00000000E+00
  0.00000000E+00  0.00000000E+00  0.00000000E+00
  0.00000000E+00  0.00000000E+00  0.00000000E+00
  0.00000000E+00  0.00000000E+00  0.00000000E+00
  0.00000000E+00  0.00000000E+00  0.00000000E+00
  0.00000000E+00  0.00000000E+00  0.00000000E+00
  0.00000000E+00  0.00000000E+00  0.00000000E+00
  0.00000000E+00  0.00000000E+00  0.00000000E+00
  0.00000000E+00  0.00000000E+00  0.00000000E+00
  0.00000000E+00  0.00000000E+00  0.00000000E+00
  0.00000000E+00  0.00000000E+00  0.00000000E+00
  0.00000000E+00  0.00000000E+00  0.00000000E+00
  0.00000000E+00  0.00000000E+00  0.00000000E+00
  0.00000000E+00  0.00000000E+00  0.00000000E+00
  0.00000000E+00  0.00000000E+00  0.00000000E+00
  0.00000000E+00  0.00000000E+00  0.00000000E+00
  0.00000000E+00  0.00000000E+00  0.00000000E+00
  0.00000000E+00  0.00000000E+00  0.00000000E+00
  0.00000000E+00  0.00000000E+00  0.00000000E+00
  0.00000000E+00  0.00000000E+00  0.00000000E+00
  0.00000000E+00  0.00000000E+00  0.00000000E+00
  0.00000000E+00  0.00000000E+00  0.00000000E+00
  0.00000000E+00  0.00000000E+00  0.00000000E+00
  0.00000000E+00  0.00000000E+00  0.00000000E+00
  0.00000000E+00  0.00000000E+00  0.00000000E+00
  0.00000000E+00  0.00000000E+00  0.00000000E+00
  0.00000000E+00  0.00000000E+00  0.00000000E+00
  0.00000000E+00  0.00000000E+00  0.00000000E+00
  0.00000000E+00  0.00000000E+00  0.00000000E+00
  0.00000000E+00  0.00000000E+00  0.00000000E+00
  0.00000000E+00  0.00000000E+00  0.00000000E+00
  0.00000000E+00  0.00000000E+00  0.00000000E+00
  0.00000000E+00  0.00000000E+00  0.00000000E+00
  0.00000000E+00  0.00000000E+00  0.00000000E+00
  0.00000000E+00  0.00000000E+00  0.00000000E+00
  0.00000000E+00  0.00000000E+00  0.00000000E+00
  0.00000000E+00  0.00000000E+00  0.00000000E+00
  0.00000000E+00  0.00000000E+00  0.00000000E+00
  0.00000000E+00  0.00000000E+00  0.00000000E+00
  0.00000000E+00  0.00000000E+00  0.00000000E+00
  0.00000000E+00  0.00000000E+00  0.00000000E+00
  0.00000000E+00  0.00000000E+00  0.00000000E+00
  0.00000000E+00  0.00000000E+00  0.00000000E+00
  0.00000000E+00  0.00000000E+00  0.00000000E+00
  0.00000000E+00  0.00000000E+00  0.00000000E+00
  0.00000000E+00  0.00000000E+00  0.00000000E+00
  0.00000000E+00  0.00000000E+00  0.00000000E+00
  0.00000000E+00  0.00000000E+00  0.00000000E+00
  0.00000000E+00  0.00000000E+00  0.00000000E+00
  0.00000000E+00  0.00000000E+00  0.00000000E+00
  0.00000000E+00  0.00000000E+00  0.00000000E+00
  0.00000000E+00  0.00000000E+00  0.00000000E+00
  0.00000000E+00  0.00000000E+00  0.00000000E+00
  0.00000000E+00  0.00000000E+00  0.00000000E+00
  0.00000000E+00  0.00000000E+00  0.00000000E+00
  0.00000000E+00  0.00000000E+00  0.00000000E+00
  0.00000000E+00  0.00000000E+00  0.00000000E+00
  0.00000000E+00  0.00000000E+00  0.00000000E+00
  0.00000000E+00  0.00000000E+00  0.00000000E+00
  0.00000000E+00  0.00000000E+00  0.00000000E+00
  0.00000000E+00  0.00000000E+00  0.00000000E+00
  0.00000000E+00  0.00000000E+00  0.00000000E+00
  0.00000000E+00  0.00000000E+00  0.00000000E+00
  0.00000000E+00  0.00000000E+00  0.00000000E+00
  0.00000000E+00  0.00000000E+00  0.00000000E+00
  0.00000000E+00  0.00000000E+00  0.00000000E+00
  0.00000000E+00  0.00000000E+00  0.00000000E+00
  0.00000000E+00  0.00000000E+00  0.00000000E+00
  0.00000000E+00  0.00000000E+00  0.00000000E+00
  0.00000000E+00  0.00000000E+00  0.00000000E+00
  0.00000000E+00  0.00000000E+00  0.00000000E+00
  0.00000000E+00  0.00000000E+00  0.00000000E+00
  0.00000000E+00  0.00000000E+00  0.00000000E+00
  0.00000000E+00  0.00000000E+00  0.00000000E+00
  0.00000000E+00  0.00000000E+00  0.00000000E+00
  0.00000000E+00  0.00000000E+00  0.00000000E+00
  0.00000000E+00  0.00000000E+00  0.00000000E+00
  0.00000000E+00  0.00000000E+00  0.00000000E+00
  0.00000000E+00  0.00000000E+00  0.00000000E+00
  0.00000000E+00  0.00000000E+00  0.00000000E+00
  0.00000000E+00  0.00000000E+00  0.00000000E+00
  0.00000000E+00  0.00000000E+00  0.00000000E+00
  0.00000000E+00  0.00000000E+00  0.00000000E+00
  0.00000000E+00  0.00000000E+00  0.00000000E+00
  0.00000000E+00  0.00000000E+00  0.00000000E+00
  0.00000000E+00  0.00000000E+00  0.00000000E+00
  0.00000000E+00  0.00000000E+00  0.00000000E+00
  0.00000000E+00  0.00000000E+00  0.00000000E+00
  0.00000000E+00  0.00000000E+00  0.00000000E+00
  0.00000000E+00  0.00000000E+00  0.00000000E+00
  0.00000000E+00  0.00000000E+00  0.00000000E+00
  0.00000000E+00  0.00000000E+00  0.00000000E+00
  0.00000000E+00  0.00000000E+00  0.00000000E+00
  0.00000000E+00  0.00000000E+00  0.00000000E+00
  0.00000000E+00  0.00000000E+00  0.00000000E+00
  0.00000000E+00  0.00000000E+00  0.00000000E+00
  0.00000000E+00  0.00000000E+00  0.00000000E+00
  0.00000000E+00  0.00000000E+00  0.00000000E+00
  0.00000000E+00  0.00000000E+00  0.00000000E+00
  0.00000000E+00  0.00000000E+00  0.00000000E+00
  0.00000000E+00  0.00000000E+00  0.00000000E+00
  0.00000000E+00  0.00000000E+00  0.00000000E+00
  0.00000000E+00  0.00000000E+00  0.00000000E+00
  0.00000000E+00  0.00000000E+00  0.00000000E+00
  0.00000000E+00  0.00000000E+00  0.00000000E+00
  0.00000000E+00  0.00000000E+00  0.00000000E+00
  0.00000000E+00  0.00000000E+00  0.00000000E+00
  0.00000000E+00  0.00000000E+00  0.00000000E+00
  0.00000000E+00  0.00000000E+00  0.00000000E+00
  0.00000000E+00  0.00000000E+00  0.00000000E+00
  0.00000000E+00  0.00000000E+00  0.00000000E+00
  0.00000000E+00  0.00000000E+00  0.00000000E+00
  0.00000000E+00  0.00000000E+00  0.00000000E+00
  0.00000000E+00  0.00000000E+00  0.00000000E+00
  0.00000000E+00  0.00000000E+00  0.00000000E+00
  0.00000000E+00  0.00000000E+00  0.00000000E+00
  0.00000000E+00  0.00000000E+00  0.00000000E+00
  0.00000000E+00  0.00000000E+00  0.00000000E+00
  0.00000000E+00  0.00000000E+00  0.00000000E+00
  0.00000000E+00  0.00000000E+00  0.00000000E+00
  0.00000000E+00  0.00000000E+00  0.00000000E+00
  0.00000000E+00  0.00000000E+00  0.00000000E+00
  0.00000000E+00  0.00000000E+00  0.00000000E+00
  0.00000000E+00  0.00000000E+00  0.00000000E+00
  0.00000000E+00  0.00000000E+00  0.00000000E+00
  0.00000000E+00  0.00000000E+00  0.00000000E+00
  0.00000000E+00  0.00000000E+00  0.00000000E+00
  0.00000000E+00  0.00000000E+00  0.00000000E+00
  0.00000000E+00  0.00000000E+00  0.00000000E+00
  0.00000000E+00  0.00000000E+00  0.00000000E+00
  0.00000000E+00  0.00000000E+00  0.00000000E+00
  0.00000000E+00  0.00000000E+00  0.00000000E+00
  0.00000000E+00  0.00000000E+00  0.00000000E+00
  0.00000000E+00  0.00000000E+00  0.00000000E+00
  0.00000000E+00  0.00000000E+00  0.00000000E+00
  0.00000000E+00  0.00000000E+00  0.00000000E+00
  0.00000000E+00  0.00000000E+00  0.00000000E+00
  0.00000000E+00  0.00000000E+00  0.00000000E+00
  0.00000000E+00  0.00000000E+00  0.00000000E+00
  0.00000000E+00  0.00000000E+00  0.00000000E+00
  0.00000000E+00  0.00000000E+00  0.00000000E+00
  0.00000000E+00  0.00000000E+00  0.00000000E+00
  0.00000000E+00  0.00000000E+00  0.00000000E+00
  0.00000000E+00  0.00000000E+00  0.00000000E+00
  0.00000000E+00  0.00000000E+00  0.00000000E+00
  0.00000000E+00  0.00000000E+00  0.00000000E+00
  0.00000000E+00  0.00000000E+00  0.00000000E+00
  0.00000000E+00  0.00000000E+00  0.00000000E+00
