50.0% N(Distort)=4 ~[0.5,0.5,0.5]
1.0
  12.5998379999999983    0.0000000000000004    0.0000000000000004
   0.0000000000000004   12.5998379999999983   -0.0000000000000004
  -0.0000000000000004   -0.0000000000000004   12.5998379999999983
Mg O
109 107
direct
   0.6719359826099596    0.0164400566803896   -0.0025562813959436 Mg
   0.8333333333333333    0.1666666666666667    1.0000000000000000 Mg
   0.8356993213461827    1.0223522002184962    0.1641323011046227 Mg
   0.3224763702131981    0.0044599364366762   -0.0124259056236310 Mg
   0.4683882807349408    0.1945445291202825   -0.0305159411567925 Mg
   0.6700452871194704    0.2991563222813016   -0.0172120397832292 Mg
   0.8039052536122827    0.5075978931896779    1.0060087239430704 Mg
   0.4829288323089322    0.0313671915667327    0.1627357747048522 Mg
   0.6680970459318322    0.1657521328434063    0.1714409922644628 Mg
   0.8433038973606903    0.3205099049622319    0.1758011922340745 Mg
   0.6745998374736627    0.0008994494499590    0.3346483595807478 Mg
   0.8124553172097678    0.1724265207581707    0.3719921070213105 Mg
   0.8291622113746426    1.0039509444368677    0.5026343119931180 Mg
  -0.0069022986372929    0.0092833471422982   -0.0133885478690174 Mg
   0.2134206667095242    0.1412648461147674    0.0277292482884210 Mg
   0.3631245288348178    0.2990739339452088    0.0128454398420581 Mg
   0.5123293920986107    0.4835965944628438   -0.0127408574412536 Mg
   0.6787810103773607    0.6603119825128554   -0.0134457995200001 Mg
   0.8286784624489822    0.8213496633048497   -0.0112279152151902 Mg
   0.1773627273906230   -0.0157477667117048    0.1642806400764441 Mg
   0.3360111755981139    0.1667140084729265    0.1623113061568973 Mg
   0.4907907330600892    0.3481480507931640    0.1452996921688239 Mg
   0.6523465365875940    0.5306247336113428    0.1761251411561560 Mg
   0.8435109328349567    0.6909583451456404    0.1491059968364122 Mg
   0.3545981230887522    0.0003403542711003    0.3401793816083489 Mg
   0.4881046807147811    0.1562887120163574    0.3567105048617596 Mg
   0.6967121461153575    0.3109011135531390    0.3096373882541095 Mg
   0.8620184468597226    0.5008622890437947    0.3230492485546889 Mg
   0.5162170819762641   -0.0173241363258303    0.4821004784926361 Mg
   0.6919484539317844    0.1474037522783008    0.4687936996382928 Mg
   0.8135902721109219    0.3417256424670321    0.4909136830280345 Mg
   0.6547681378009934   -0.0053534442325894    0.6443946332153677 Mg
   0.8654572098389071    0.1759205189348783    0.6338522800076745 Mg
   0.8393565288374573    0.0016692021560775    0.8368591887559015 Mg
  -0.0250591052942468    0.3333934331865048    0.9840938786345163 Mg
   0.1786036003820587    0.5014360395945212   -0.0010406233437398 Mg
   0.3430744142047604    0.6674537662232211    0.9947414851684013 Mg
   0.4973996348709248    0.8390023757653896   -0.0254926335687933 Mg
  -0.0097463616409965    0.1847042674796265    0.1902324006398851 Mg
   0.1430680708941089    0.3433988030898365    0.1540541842926006 Mg
   0.3215804152245898    0.4827037854544338    0.1885832742655875 Mg
   0.5030622379847988    0.6886076529163122    0.1619707220048927 Mg
   0.6570888591925563    0.8108261564482410    0.1916934611718679 Mg
   1.0313852411388447    1.0341584350996758    0.3207330252279320 Mg
   0.1667269549343642    0.1623232970422456    0.3360132187166538 Mg
   0.3213219490424879    0.3425608332774752    0.3543667321446333 Mg
   0.5030568180952406    0.5219944602999155    0.3564720470122078 Mg
   0.6772770384882061    0.6961164525652728    0.3387188227129195 Mg
   0.8183997560730393    0.8330286466410030    0.3228951940928429 Mg
   0.1809270926229020   -0.0004144244021964    0.4857175058974572 Mg
   0.3316847236567337    0.1570796620209172    0.5030177606026991 Mg
   0.4935717179896604    0.3162881075188245    0.4948581305003615 Mg
   0.6746228381949346    0.4939114859241800    0.4920778989305235 Mg
   0.8097129049147266    0.6958035163175413    0.5040227755375163 Mg
   0.3504200222993022    1.0042906314242790    0.6718527757197222 Mg
   0.4878186591723743    0.1656758902636453    0.6555604933454329 Mg
   0.6654563810081168    0.3593406729914472    0.6787029369702681 Mg
   0.8348765840605756    0.4921503573365379    0.6457728130848903 Mg
   0.4962526656967893    0.0025472986701337    0.8494722529573039 Mg
   0.6672496029265211    0.1529994704637565    0.8485858913586156 Mg
   0.8320382316105843    0.3339859789954978    0.8225808481255645 Mg
   0.0052872332280032    0.6634311858631065    1.0107973538254775 Mg
   0.1479460396275730    0.8391910384952745    0.0228971322112653 Mg
   0.0102496525600654    0.4937358765615373    0.1795442293608062 Mg
   0.1609642580324446    0.6652121404681228    0.2023740487826923 Mg
   0.3142974178265594    0.8260689398087359    0.1933014427186543 Mg
  -0.0088488495994943    0.3110341192440350    0.3443270768378586 Mg
   0.1654917196495632    0.5204735011976072    0.3200377805822761 Mg
   0.3280075676446933    0.6795073543758106    0.3614434745120131 Mg
   0.5170233427103244    0.8321519929108977    0.3189007470354176 Mg
   0.0051074743868813    0.1707490592422901    0.5027558348373146 Mg
   0.1484454031379345    0.3457942805764807    0.5295600324074836 Mg
   0.3669593407247427    0.5028535687043699    0.4812786832176055 Mg
   0.4863782167853160    0.6716198788252191    0.5069897301849240 Mg
   0.6313669178593314    0.8084661886452220    0.5162102833699594 Mg
   1.0107846470611825    0.9983731656524357    0.6627289647377979 Mg
   0.1751616000310636    0.1680338444194444    0.6908906245048363 Mg
   0.3136580092562284    0.3465991453750556    0.6382771127862400 Mg
   0.4902508306159462    0.4810964569375833    0.6902236397557513 Mg
   0.6848444950975512    0.6674739687277998    0.6926680532822452 Mg
   0.8373756380718347    0.8233108525909881    0.6554521413161765 Mg
   0.1640011999216648    0.0035944041448659    0.8290339110343156 Mg
   0.3218582072682602    0.1448395843483630    0.8168087028198618 Mg
   0.4755232463938574    0.3475162578549514    0.8614429448186181 Mg
   0.6578737967598502    0.4998196921159005    0.8631618292330876 Mg
   0.8050465404017129    0.6525069816818678    0.8185050405238231 Mg
   0.9804415624634182    0.8206645362155877    0.1530987980149533 Mg
   0.0071257887013061    0.6505473078833396    0.3450449052217062 Mg
   0.1409090426521673    0.8046003688399248    0.3345170575796297 Mg
   0.0166111024563310    0.4918582247994465    0.5258207807364415 Mg
   0.1368324492420815    0.6500239998400954    0.4920886360377136 Mg
   0.3370387962591122    0.8400699066165378    0.5069130401722114 Mg
   0.9942060212795686    0.3353201308116093    0.6554039071101379 Mg
   0.2014338021041381    0.4932733695658461    0.6893496736840349 Mg
   0.3424039436742734    0.6628254855252661    0.6597240968742499 Mg
   0.5145808484472629    0.8233042412417546    0.6477625793653503 Mg
   0.0241334930521280    0.1494509086443901    0.8177706628784418 Mg
   0.1773423218211717    0.3209566410554300    0.8329564161329768 Mg
   0.3267104104838557    0.4732353414239920    0.8308888082852629 Mg
   0.4739320014859840    0.6558058040052305    0.8785495651300012 Mg
   0.6596906548303790    0.8297989682534616    0.8246873755360732 Mg
   1.0201871428126346    0.8253599409088225    0.4895197364368499 Mg
   0.0064053004847245    0.6468607830956564    0.6801357528765518 Mg
   0.1551848662140393    0.8478424523221232    0.6539503144908884 Mg
   0.0028358660992703    0.5054922320201743    0.8344994250217997 Mg
   0.1937420934478931    0.6850588784362845    0.8523363173892295 Mg
   0.3601120359754195    0.8304550249813426    0.8157763441387892 Mg
   0.0309105503907258    0.8466502579748300    0.8245310789540657 Mg
   0.5033480625094552    0.5120616807454110    0.5357932373106069 Mg
   0.8333333333333333    0.1666666666666667    0.2500032143270414 O
   0.0120773206468419    0.3393055389998574    0.1623434986740047 O
   0.0046329003502510    0.1709017630086099    0.3316290210938680 O
   0.5259624163089401    0.1642828594278298    0.1875077122962953 O
   0.6845250238752856    0.3473554763229030    0.1781884963035074 O
   0.8221073101454045    0.5170620879819876    0.1706633860716996 O
   0.0023609946329578    0.6772753544044243    0.1521138792532315 O
   0.6400858451989464    0.1571162783187341    0.3298895178604876 O
   0.8425659376918658    0.3170194459561099    0.3522845415856595 O
  -0.0042696692320755    0.4922352840148766    0.3408282338292102 O
   0.8517548223949961    0.1780745918374293    0.4958614891531425 O
  -0.0107429952766592    0.3400618960938052    0.5184903325032024 O
   0.0033771344514403    0.1335702603441801    0.6583990112060760 O
   0.1576616318878132    0.1778222191868416    0.1717735337298056 O
   0.3262022333503826    0.3333604060504170    0.1763118659679076 O
   0.5163452905139602    0.4906319129075678    0.1628561475417389 O
   0.6804237263413510    0.6613448163881914    0.1597034918265624 O
   0.8446678864544348    0.8454135299476855    0.1573058983651210 O
   0.0048026436666641   -0.0110921269530827    0.1593926261942082 O
   0.3362071517461785    0.2143377106939040    0.3100884624912045 O
   0.4754430022078655    0.3527172632164532    0.3361998276113586 O
   0.6597602151627026    0.4829579824634466    0.3533097040852702 O
   0.8384947636415798    0.6580829591919023    0.3181912516608506 O
  -0.0135087510787259    0.8148247118265454    0.3364867019462957 O
   0.5256047082515626    0.1592159239006945    0.4829215353377609 O
   0.6671233739050171    0.3501187549485629    0.5159910107235435 O
   0.8221729346105703    0.4776189759982287    0.4946018368358246 O
   0.0082047344413896    0.6789809395907452    0.5059296854178424 O
   0.6483599566241861    0.1769862357509351    0.6925521907868875 O
   0.8570913572702478    0.3459443885975691    0.6419047276925383 O
   0.0209720348863993    0.5055470236245998    0.6594924247934802 O
   0.8333333333333333    0.1666666666666667    0.7499967856729586 O
  -0.0055019907440258    0.3192421781253187    0.8144074076731704 O
   0.0833365476603746    0.1666666666666667   -0.0000000000000000 O
   0.1572992988356458    0.5093523520503571    0.1490363531549606 O
   0.2968724706985630    0.6579267951605453    0.1598771596631118 O
   0.5056266983935741    0.8405960879801367    0.1436386978662007 O
   0.6520986375679448    0.0183112599893981    0.1679441523411851 O
   0.1581559270950689    0.3412776034582451    0.3257900447567094 O
   0.3183386845431421    0.4935355647208612    0.3324243978656551 O
   0.4986488591749095    0.6973185755212897    0.3658934088270339 O
   0.6652679296060067    0.8325647840363738    0.3206463398753576 O
   0.8107968776343847   -0.0072122817766788    0.3316585154499899 O
   0.1721114836286846    0.1894184882117854    0.5187725769408000 O
   0.3113197996840010    0.3472820022038996    0.4945616987160704 O
   0.6723986252147637    0.6532643137219368    0.5044643592640509 O
   0.8580448059814662    0.8215568658541063    0.5213102276447030 O
   0.0046827751434177    0.0011618561018940    0.4932214133010128 O
   0.3319939414636107    0.1625056038170397    0.6640306753183095 O
   0.4891421949693949    0.3204939318661086    0.6708172972741619 O
   0.6246493140074079    0.5019993270406743    0.6639954803285313 O
   0.8363286570984383    0.6642920622694160    0.6569800422633348 O
  -0.0300808276339767    0.7815657738338498    0.6597299709103145 O
   0.5174998685247163    0.1669208652692140    0.8390412357931109 O
   0.6868462587157800    0.3294450081570963    0.8163030809925192 O
   0.8451551403397304    0.4911484454366374    0.8187194797158508 O
   0.0112917388351669    0.6402597041120884    0.8487001249257358 O
   0.5833301190062919    0.1666666666666667    0.0000000000000000 O
   0.8091783129948787    0.3220360293989187    0.0143408147453494 O
   0.0212793330475670    0.5172536822551360   -0.0249943770146235 O
   0.1654986491495012    0.8445865824018540    0.1577361004045366 O
   0.3176392349317255   -0.0208580497420227    0.1683150673252966 O
   0.1801636373589923    0.6655664787684361    0.3322638475322323 O
   0.3096471300025377    0.8482395585660458    0.3317915372761037 O
   0.4847807905434492    0.0027158790920998    0.3545035725891957 O
   0.1908466403877730    0.5055164796330566    0.5014447397092858 O
   0.3261526786602953    0.6623869858521514    0.4973307102166510 O
   0.4724337298614680    0.8046895373806903    0.4670516042741410 O
   0.6611607971204150   -0.0051140377817816    0.5126417891084235 O
   0.1636285698612812    0.3527799864586907    0.6696662328747801 O
   0.3561268843780135    0.5077060496049829    0.7039861343926999 O
   0.4947769608414780    0.6440750474680741    0.6940615060439673 O
   0.6546847387970197    0.8494821817199247    0.6548070884913900 O
   0.8298033317092941    0.0112748495944987    0.6599504370678427 O
   0.1583883288781852    0.1480019987332016    0.8381077615826794 O
   0.3433214101960515    0.2988420215334466    0.8375845687957705 O
   0.5006233863647590    0.4874892553098120    0.8346931985262570 O
   0.6657615829057457    0.6867284823994032    0.8454835179409502 O
   0.8041447150974699    0.8431976395143027    0.8551931419781376 O
  -0.0041355094289726   -0.0082782362324318    0.8313825093202479 O
   0.3523111552166201    0.1439648072628773    0.0073681009153519 O
   0.4995994040207912    0.3429683428135594    0.0106849507553292 O
   0.6511626757430481    0.5069230428555064    0.0028588947752193 O
   0.8143109475530821    0.6530647073169452   -0.0177875162460583 O
  -0.0076090722434368    0.8087755266962992    0.0079594486361277 O
   0.1504297410852810   -0.0454990894552812    0.3357540539316162 O
   0.1834675587900423    0.8136051330824313    0.4912431750773978 O
   0.3625352340680486    0.0206328612157125    0.5006462077021996 O
   0.1887398893029363    0.7059744617971608    0.6374606975178008 O
   0.3497860578257440    0.8389437927958275    0.6773156347296622 O
   0.4748388304550316   -0.0120172630576696    0.6851611340468619 O
   0.1570577306146982    0.5225793965311439    0.8404465096216911 O
   0.3236432623251789    0.6662765620663067    0.8339237767487964 O
   0.5183706920730674    0.8136684621485316    0.8183418607574342 O
   0.6770005093149850    0.0104666826290509    0.8366307536122550 O
   0.1625509813833397    0.3327038838795763   -0.0010888874571518 O
   0.3449191558013774    0.5127428826589857   -0.0027984868948579 O
   0.4916368805262932    0.6855012819718180    0.0313921543748976 O
   0.6720414804602146    0.8408733649738961   -0.0023860921715124 O
   0.8481303831572103    0.0034013184317028   -0.0139255254021371 O
   0.1890551967317842   -0.0076861024966206    0.6542643581316354 O
   0.1586242987662467    0.8635951055027008    0.8582904826100076 O
   0.3535424089408284   -0.0222353681197768    0.8602276791854268 O
   0.2021832054769237    0.6726755320208473    0.0254449006382235 O
   0.2968362955080394    0.8403680158899604   -0.0122052127056161 O
   0.4985146516098214    0.0151167260824110    0.0195113191423255 O
   0.1650924372574445   -0.0061619054848602    0.0062400983525588 O
