ALGO = Normal
EDIFF = 1e-07
EDIFFG = -0.003
ENCUT = 450
GGA = Ps
IBRION = 8
ISIF = 2
ISMEAR = 0
ISPIN = 1
ISYM = -1
KPAR = 2
LASPH = True
LEPSILON = True
LORBIT = 11
LREAL = False
LWAVE = True
NCORE = 8
NEDOS = 2000
NELM = 100
NSW = 1
PREC = Accurate
SIGMA = 0.05
