Mg1 O1
1.0
   0.0000000000000000    2.1282420000000002    2.1282420000000002
   2.1282420000000002    0.0000000000000000    2.1282420000000002
   2.1282420000000002    2.1282420000000002    0.0000000000000000
Mg O
1 1
direct
   0.0000000000000000    0.0000000000000000    0.0000000000000000 Mg
   0.5000000000000000    0.5000000000000000    0.5000000000000000 O
