40.0% N(Distort)=1 ~[0.5,0.5,0.5]       
   1.00000000000000     
    12.5998379999999983    0.0000000000000004    0.0000000000000004
     0.0000000000000004   12.5998379999999983   -0.0000000000000004
    -0.0000000000000004   -0.0000000000000004   12.5998379999999983
   Mg   O 
   109   107
Direct
  0.6684977123691971 -0.0009387879665771 -0.0006545593763369
  0.8349230085493713  0.1652821477486477 -0.0007381277680669
  0.8348957779502875 -0.0011932702065573  0.1656564001474811
  0.3339654436146844 -0.0008926413669138 -0.0006410476391647
  0.5013600718562189  0.1648663028264491 -0.0004101986435209
  0.6685818222086786  0.3314618308044430  0.0005411615663627
  0.8360084010515552  0.4990900127446965  0.0008399278168086
  0.5011981880834181  0.9976344235465908  0.1645426157200122
  0.6687313299002386  0.1646509207664600  0.1651319717644856
  0.8353575724770333  0.3316017074845168  0.1651939468406562
  0.6686466454582876  0.9972925947625692  0.3318779193204558
  0.8353834553219116  0.1646622560089143  0.3318220861644274
  0.8359551869848929 -0.0023409175401512  0.4993344387968144
  0.0012247385526711 -0.0008777017069887  0.9993314871392110
  0.1675489572120540  0.1654813577689604 -0.0007103488792110
  0.3340828198838676  0.3320109629775865  0.0004200240225562
  0.5014118170896892  0.4993298965562138  0.0039325216550581
  0.6687063915690111  0.6665885294673469  0.0011683938225835
  0.8348996890823208  0.8327931940243808 -0.0003388785406403
  0.1674167837082888 -0.0007845225061597  0.1656257765534599
  0.3337767401356460  0.1651898265103920  0.1651104383632291
  0.5014700169434800  0.3305437886445413  0.1641497268220338
  0.6693183657851807  0.4991551338373517  0.1652108642679465
  0.8345298106398052  0.6662954246003883  0.1660288529824248
  0.3335689652180642 -0.0020886028092539  0.3319626220972436
  0.5009483317277619  0.1570292117651476  0.3259894634707617
  0.6716731449487195  0.3318650397385990  0.3288278966516829
  0.8353412089508733  0.4991407182726105  0.3312513201407462
  0.5013726270067043 -0.0054262242511419  0.4991223245097206
  0.6744662058188678  0.1570979673051844  0.4995856709819575
  0.8363462640107033  0.3305663729011526  0.4990815037902221
  0.6685651851591585 -0.0020387353982626  0.6669298194825666
  0.8353943072252732  0.1651969800004946  0.6667749299910686
  0.8349050283539848  0.9991660809296953  0.8331222462660909
  0.0011563925784577  0.3318833443468873  0.9993410475177934
  0.1669346989252528  0.4992901860643701 -0.0004403573176538
  0.3335456444426405  0.6664778648628892  0.0004834241293956
  0.5011730608039254  0.8339026352732162  0.0008059842909091
  0.0012788157747944  0.1653182624651431  0.1656068546645971
  0.1672859569077431  0.3316526281266497  0.1650828586837084
  0.3326202811271487  0.4993528080524448  0.1640707112174157
  0.5012571568005691  0.6672339259280869  0.1651626210451002
  0.6684062042848256  0.8324622193736537  0.1660075122084257
  0.0011761061832187 -0.0009186769631805  0.3320379253225728
  0.1675560888932554  0.1654579357830765  0.3320416570297799
  0.3342182428665615  0.3321402843210524  0.3305372152340925
  0.5016933256527945  0.4996150665685153  0.3219623163686753
  0.6681228860447832  0.6660568288648427  0.3323842193657447
  0.8345319228854923  0.8324466339939458  0.3321506864072077
  0.1669367893268316 -0.0011695457018070  0.4991721709299597
  0.3333257336461470  0.1605560886798245  0.4988644126376794
  0.5186794967539122  0.2969912293500644  0.4815590801041237
  0.6784970209925839  0.4996515387748759  0.4987934705224874
  0.8353615895320473  0.6672194885749593  0.4992571431878819
  0.3340615726657962  0.9979707217058984  0.6664108379266866
  0.5016358244735518  0.1606548763192898  0.6671852831706194
  0.6698913920189064  0.3321463219455552  0.6663338524311682
  0.8364212269255664  0.4993836840586460  0.6678687681468863
  0.5013535197798674 -0.0011597609420271  0.8335318792812898
  0.6684772890355970  0.1654470593660632  0.8330001071603774
  0.8354072214766544  0.3316413723823901  0.8332426998930635
  0.0011325343139279  0.6663944326170790 -0.0006307889454777
  0.1673789849895183  0.8328472345621925 -0.0007367127282322
 -0.0002925123741742  0.4990935806238859  0.1645135984425802
  0.1667412872743917  0.6666512451461944  0.1650675626258678
  0.3337224069502120  0.8332730757652276  0.1651566941405335
  0.0000234750454396  0.3314769972259897  0.3319573356929302
  0.1590883444335267  0.4988664862195055  0.3258889842755313
  0.3339504460434865  0.6695496313686635  0.3287507043494547
  0.5012170543295794  0.8332467262341374  0.3311983127551928
  0.0009333834379273  0.1648673003004854  0.4991642560501485
  0.1626266019286139  0.3312783609678595  0.4988696577518236
  0.2989775574557846  0.5166109362111404  0.4813732258803958
  0.5016860551174963  0.6764425982468950  0.4987695268138361
  0.6692984776943816  0.8332664646111526  0.4992734683777893
  0.0011482818849988 -0.0009132180021224  0.6665345567278069
  0.1663426023280885  0.1642874936455920  0.6662903046179927
  0.3278790124008772  0.3258610595667837  0.6726952565240732
  0.5192107820564592  0.5169005090755869  0.7017941405818918
  0.6717628047735537  0.6696389952132510  0.6665398109669955
  0.8353961162536527  0.8332766004539821  0.6667954678656338
  0.1675083778051998  0.9991615329769951  0.8329823574626867
  0.3342255114043530  0.1642543485811460  0.8341724793536630
  0.5016552148739024  0.3312780723244825  0.8378989138948717
  0.6746548430575103  0.4988652771978120  0.8415111227296636
  0.8354344402255216  0.6666420416696189  0.8337621264628732
  0.0008826526838025  0.8328209331172963  0.1656541224325084
  0.9993679676180210  0.6665721175298032  0.3318316857165969
  0.1667617161644302  0.8333053830010569  0.3317616682520155
 -0.0033462266581208  0.4993285828282275  0.4990967252802603
  0.1591623391790284  0.6723668726792293  0.4995367021655715
  0.3326242464086108  0.8342243211563647  0.4990742174111893
  0.0000671798574199  0.3320402436715698  0.6664213919169260
  0.1627558687750155  0.4995891186703330  0.6671909758587672
  0.3341848114347127  0.6677530829207623  0.6663292758812283
  0.5014568360390596  0.8342869300610147  0.6678824257096715
  0.0012242867866524  0.1654499027583051  0.8329829786390255
  0.1663097194940427  0.3321863555873062  0.8341725888915121
  0.3333265938506330  0.4995890209964166  0.8378086298485244
  0.5008961982607637  0.6724834434232384  0.8414538534713158
  0.6687339861425876  0.8333052605505302  0.8337647300966239
 -0.0002721863848707  0.8338774774303930  0.4993124135861415
  0.0000521973195969  0.6664888395969050  0.6669040208150041
  0.1672431797544730  0.8333018323759942  0.6667593376809193
  0.0009244768458788  0.4992839188963422  0.8335417126197586
  0.1674821281778882  0.6664131725166366  0.8329994779762866
  0.3336959053031581  0.8333173616911828  0.8332340968600498
  0.0012415547962058  0.8328229181961966  0.8331319151490244
  0.4435908263020846  0.4417280051405328  0.5573294072198202
  0.8343661243261653  0.1656729120211484  0.1662091065567834
  0.0014299617395040  0.3323726683572978  0.1660774990869589
  0.0016093268445450  0.1659036130012892  0.3328806276805022
  0.5011500112552874  0.1649805621864647  0.1654202270360752
  0.6677855802840933  0.3322100805828578  0.1662420728531590
  0.8339754899828996  0.4987881462146314  0.1666174701838719
  0.0009755402088036  0.6655819066392971  0.1661192519754913
  0.6665133775729488  0.1655611777889424  0.3340520834220804
  0.8342968134599562  0.3322291420762576  0.3328104612676651
 -0.0012480374693970  0.4988978548757826  0.3316513623647952
  0.8350719850359853  0.1650154196652492  0.4994041831793268
 -0.0000273179965291  0.3317141477081608  0.4993434542631435
  0.0015262701259304  0.1661569109795797  0.6657461443234884
  0.1683446627811008  0.1661964261046959  0.1663141767624674
  0.3348922803400663  0.3327491583063705  0.1667718009160021
  0.5008791316830549  0.4987281895674004  0.1652070574436972
  0.6672415574625118  0.6651132945912456  0.1672144775739856
  0.8343153844939669  0.8321687393123293  0.1662681070642764
  0.0013284290065296 -0.0008119317731238  0.1659711737034443
  0.3359296339579898  0.1666890003493177  0.3341320721535358
  0.5022603181571825  0.3328233421925894  0.3323390806815439
  0.6650497441548980  0.4983286868321218  0.3354723011498605
  0.8333392417727132  0.6650856408278003  0.3332994611224857
  0.0009747998052665  0.8322820155856863  0.3328233204605299
  0.5014878494827151  0.1532179444617619  0.4989805921405522
  0.6679500852801392  0.3328882017480098  0.4982933845261142
  0.8353017783015244  0.4987195769721844  0.4996903497942747
  0.9987654647101990  0.6667359533459728  0.4994403984244216
  0.6663951498280571  0.1666775451465070  0.6646147834974125
  0.8336948391460263  0.3327618091740952  0.6656286046592107
  0.0000333907400126  0.4990542353554548  0.6666534615105372
  0.8342249208671156  0.1661733149240571  0.8322127195301444
  0.0014994237123091  0.3326372488438886  0.8322156029051934
  0.0014425889278184  0.1659154456957397 -0.0009215325000831
  0.1670958049673616  0.4989943671544083  0.1653819536931794
  0.3343498221510525  0.6656474459730709  0.1661740979935429
  0.5009307931080760  0.8318520449103096  0.1665669150681733
  0.6677120485882898  0.9988293071469649  0.1661328553180129
  0.1688215558353333  0.3337979846397336  0.3341306722251364
  0.3349322590664020  0.5000842912892305  0.3322734911453031
  0.5004299964582121  0.6629267278335930  0.3354056268723529
  0.6672226520178427  0.8312208981573347  0.3333014832528323
  0.8344148966974199 -0.0011674431789005  0.3328619100392206
  0.1697467585638205  0.1676587975604857  0.4994939886543540
  0.3437938283053040  0.3417489557340475  0.4988983082119444
  0.6650444922979326  0.6629421057324214  0.5000599882169193
  0.8339642988795075  0.8318261252219986  0.4996025589466461
  0.0014974802109067 -0.0006451186365272  0.4994067818414532
  0.3359411832528706  0.1665112520231754  0.6645703889924196
  0.5016526290881779  0.3415551615709416  0.6570600928670346
  0.6681790489562504  0.5001415699139450  0.6655562273177918
  0.8343494078820949  0.6656557111891740  0.6661537390883525
  0.0014266350666917  0.8323331415050065  0.6659881224924991
  0.5010365903665884  0.1676111934365687  0.8308107638303532
  0.6664374961567689  0.3338065381854850  0.8317772668182476
  0.8351357300454199  0.4990081359921693  0.8334111692550037
  0.0015765591360849  0.6655444125397568  0.8324795272902187
  0.6676768352454814  0.1658864218515257 -0.0010722370841389
  0.8344682705456785  0.3323576833057741 -0.0008866169151014
  0.0014611221070262  0.4989668147724489  0.9990212529814029
  0.1678236830035058  0.8322439940197949  0.1661717508476278
  0.3345466291313906  0.9992939573463784  0.1660642421889709
  0.1677026592764367  0.6643411827576964  0.3339658043406012
  0.3343624529936200  0.8321376724473223  0.3327636869383192
  0.5010189020359999  0.9966452287085811  0.3316882741416036
  0.1552559792202287  0.4993770459780809  0.4989572724795047
  0.3350107758225931  0.6657529712863668  0.4982604411294579
  0.5008447972292184  0.8331909002014690  0.4996768097653306
  0.6688262264092566 -0.0033337215522616  0.4995070138226305
  0.1685804838926547  0.3338675440378596  0.6645400333873231
  0.3434984351675654  0.4995293867139638  0.6572171354599184
  0.5022765529101955  0.6658966570598979  0.6655427715221341
  0.6677853491711345  0.8321964717612124  0.6661723693265491
  0.8344747445997681 -0.0006984386818387  0.6660016190378756
  0.1687211370846533  0.1666246811160608  0.8317880259141136
  0.3359499994538990  0.3338458060575479  0.8319982364460125
  0.5015817054132505  0.4994127361955671  0.8454095572617587
  0.6665027261676181  0.6643624459597827  0.8328464552959943
  0.8343546037164966  0.8322261664094561  0.8327376406926519
  0.0014311175659718 -0.0006883025162241  0.8324820871360165
  0.3347886499465736  0.1661479136812350 -0.0010133020345943
  0.5012056159944168  0.3317056841510068  0.0005768463908244
  0.6689280715510635  0.4989170450872315  0.0018289121253533
  0.8344225749232850  0.6655671363034220 -0.0003923837128621
  0.0013117208212838  0.8324314001482661 -0.0007555688760106
  0.1680597571872172 -0.0005255400632591  0.3328764585185033
  0.1671487964075072  0.8329150287381912  0.4993455936998752
  0.3338141143354644 -0.0021384828903672  0.4993656507291316
  0.1687653649668935  0.6642898139641717  0.6646073401594219
  0.3348758803568751  0.8315595069537383  0.6656222948149652
  0.5011559052789231 -0.0020936690327303  0.6666759201253392
  0.1696773486047987  0.4989283109162165  0.8308394781465752
  0.3358763739824892  0.6643317091938309  0.8317799172250334
  0.5011495306197183  0.8329745125375818  0.8333971102729123
  0.6676736969619718  0.9994747101700510  0.8324626254915767
  0.1682452654760021  0.3326513441568916 -0.0010120923774966
  0.3338514545199446  0.4990542935299499  0.0005111888636115
  0.5010513898357083  0.6667861948582683  0.0017977185258275
  0.6677075003012978  0.8322769613258566 -0.0004138848848033
  0.8345809302047070 -0.0008507480172317 -0.0007682596355753
  0.1682589948684526 -0.0005914426806727  0.6657462259241699
  0.1682692094608599  0.8321105868547294  0.8322093572270834
  0.3347513229144523 -0.0005971388800057  0.8322173392538191
  0.1680070379288069  0.6655480108386264 -0.0010853190008501
  0.3345113695271986  0.8323461705686968  0.9990879755123744
  0.5011146466096560 -0.0006379052022003 -0.0009938570927891
  0.1680598589885737 -0.0006565590950816 -0.0009239869878807
 
  0.00000000E+00  0.00000000E+00  0.00000000E+00
  0.00000000E+00  0.00000000E+00  0.00000000E+00
  0.00000000E+00  0.00000000E+00  0.00000000E+00
  0.00000000E+00  0.00000000E+00  0.00000000E+00
  0.00000000E+00  0.00000000E+00  0.00000000E+00
  0.00000000E+00  0.00000000E+00  0.00000000E+00
  0.00000000E+00  0.00000000E+00  0.00000000E+00
  0.00000000E+00  0.00000000E+00  0.00000000E+00
  0.00000000E+00  0.00000000E+00  0.00000000E+00
  0.00000000E+00  0.00000000E+00  0.00000000E+00
  0.00000000E+00  0.00000000E+00  0.00000000E+00
  0.00000000E+00  0.00000000E+00  0.00000000E+00
  0.00000000E+00  0.00000000E+00  0.00000000E+00
  0.00000000E+00  0.00000000E+00  0.00000000E+00
  0.00000000E+00  0.00000000E+00  0.00000000E+00
  0.00000000E+00  0.00000000E+00  0.00000000E+00
  0.00000000E+00  0.00000000E+00  0.00000000E+00
  0.00000000E+00  0.00000000E+00  0.00000000E+00
  0.00000000E+00  0.00000000E+00  0.00000000E+00
  0.00000000E+00  0.00000000E+00  0.00000000E+00
  0.00000000E+00  0.00000000E+00  0.00000000E+00
  0.00000000E+00  0.00000000E+00  0.00000000E+00
  0.00000000E+00  0.00000000E+00  0.00000000E+00
  0.00000000E+00  0.00000000E+00  0.00000000E+00
  0.00000000E+00  0.00000000E+00  0.00000000E+00
  0.00000000E+00  0.00000000E+00  0.00000000E+00
  0.00000000E+00  0.00000000E+00  0.00000000E+00
  0.00000000E+00  0.00000000E+00  0.00000000E+00
  0.00000000E+00  0.00000000E+00  0.00000000E+00
  0.00000000E+00  0.00000000E+00  0.00000000E+00
  0.00000000E+00  0.00000000E+00  0.00000000E+00
  0.00000000E+00  0.00000000E+00  0.00000000E+00
  0.00000000E+00  0.00000000E+00  0.00000000E+00
  0.00000000E+00  0.00000000E+00  0.00000000E+00
  0.00000000E+00  0.00000000E+00  0.00000000E+00
  0.00000000E+00  0.00000000E+00  0.00000000E+00
  0.00000000E+00  0.00000000E+00  0.00000000E+00
  0.00000000E+00  0.00000000E+00  0.00000000E+00
  0.00000000E+00  0.00000000E+00  0.00000000E+00
  0.00000000E+00  0.00000000E+00  0.00000000E+00
  0.00000000E+00  0.00000000E+00  0.00000000E+00
  0.00000000E+00  0.00000000E+00  0.00000000E+00
  0.00000000E+00  0.00000000E+00  0.00000000E+00
  0.00000000E+00  0.00000000E+00  0.00000000E+00
  0.00000000E+00  0.00000000E+00  0.00000000E+00
  0.00000000E+00  0.00000000E+00  0.00000000E+00
  0.00000000E+00  0.00000000E+00  0.00000000E+00
  0.00000000E+00  0.00000000E+00  0.00000000E+00
  0.00000000E+00  0.00000000E+00  0.00000000E+00
  0.00000000E+00  0.00000000E+00  0.00000000E+00
  0.00000000E+00  0.00000000E+00  0.00000000E+00
  0.00000000E+00  0.00000000E+00  0.00000000E+00
  0.00000000E+00  0.00000000E+00  0.00000000E+00
  0.00000000E+00  0.00000000E+00  0.00000000E+00
  0.00000000E+00  0.00000000E+00  0.00000000E+00
  0.00000000E+00  0.00000000E+00  0.00000000E+00
  0.00000000E+00  0.00000000E+00  0.00000000E+00
  0.00000000E+00  0.00000000E+00  0.00000000E+00
  0.00000000E+00  0.00000000E+00  0.00000000E+00
  0.00000000E+00  0.00000000E+00  0.00000000E+00
  0.00000000E+00  0.00000000E+00  0.00000000E+00
  0.00000000E+00  0.00000000E+00  0.00000000E+00
  0.00000000E+00  0.00000000E+00  0.00000000E+00
  0.00000000E+00  0.00000000E+00  0.00000000E+00
  0.00000000E+00  0.00000000E+00  0.00000000E+00
  0.00000000E+00  0.00000000E+00  0.00000000E+00
  0.00000000E+00  0.00000000E+00  0.00000000E+00
  0.00000000E+00  0.00000000E+00  0.00000000E+00
  0.00000000E+00  0.00000000E+00  0.00000000E+00
  0.00000000E+00  0.00000000E+00  0.00000000E+00
  0.00000000E+00  0.00000000E+00  0.00000000E+00
  0.00000000E+00  0.00000000E+00  0.00000000E+00
  0.00000000E+00  0.00000000E+00  0.00000000E+00
  0.00000000E+00  0.00000000E+00  0.00000000E+00
  0.00000000E+00  0.00000000E+00  0.00000000E+00
  0.00000000E+00  0.00000000E+00  0.00000000E+00
  0.00000000E+00  0.00000000E+00  0.00000000E+00
  0.00000000E+00  0.00000000E+00  0.00000000E+00
  0.00000000E+00  0.00000000E+00  0.00000000E+00
  0.00000000E+00  0.00000000E+00  0.00000000E+00
  0.00000000E+00  0.00000000E+00  0.00000000E+00
  0.00000000E+00  0.00000000E+00  0.00000000E+00
  0.00000000E+00  0.00000000E+00  0.00000000E+00
  0.00000000E+00  0.00000000E+00  0.00000000E+00
  0.00000000E+00  0.00000000E+00  0.00000000E+00
  0.00000000E+00  0.00000000E+00  0.00000000E+00
  0.00000000E+00  0.00000000E+00  0.00000000E+00
  0.00000000E+00  0.00000000E+00  0.00000000E+00
  0.00000000E+00  0.00000000E+00  0.00000000E+00
  0.00000000E+00  0.00000000E+00  0.00000000E+00
  0.00000000E+00  0.00000000E+00  0.00000000E+00
  0.00000000E+00  0.00000000E+00  0.00000000E+00
  0.00000000E+00  0.00000000E+00  0.00000000E+00
  0.00000000E+00  0.00000000E+00  0.00000000E+00
  0.00000000E+00  0.00000000E+00  0.00000000E+00
  0.00000000E+00  0.00000000E+00  0.00000000E+00
  0.00000000E+00  0.00000000E+00  0.00000000E+00
  0.00000000E+00  0.00000000E+00  0.00000000E+00
  0.00000000E+00  0.00000000E+00  0.00000000E+00
  0.00000000E+00  0.00000000E+00  0.00000000E+00
  0.00000000E+00  0.00000000E+00  0.00000000E+00
  0.00000000E+00  0.00000000E+00  0.00000000E+00
  0.00000000E+00  0.00000000E+00  0.00000000E+00
  0.00000000E+00  0.00000000E+00  0.00000000E+00
  0.00000000E+00  0.00000000E+00  0.00000000E+00
  0.00000000E+00  0.00000000E+00  0.00000000E+00
  0.00000000E+00  0.00000000E+00  0.00000000E+00
  0.00000000E+00  0.00000000E+00  0.00000000E+00
  0.00000000E+00  0.00000000E+00  0.00000000E+00
  0.00000000E+00  0.00000000E+00  0.00000000E+00
  0.00000000E+00  0.00000000E+00  0.00000000E+00
  0.00000000E+00  0.00000000E+00  0.00000000E+00
  0.00000000E+00  0.00000000E+00  0.00000000E+00
  0.00000000E+00  0.00000000E+00  0.00000000E+00
  0.00000000E+00  0.00000000E+00  0.00000000E+00
  0.00000000E+00  0.00000000E+00  0.00000000E+00
  0.00000000E+00  0.00000000E+00  0.00000000E+00
  0.00000000E+00  0.00000000E+00  0.00000000E+00
  0.00000000E+00  0.00000000E+00  0.00000000E+00
  0.00000000E+00  0.00000000E+00  0.00000000E+00
  0.00000000E+00  0.00000000E+00  0.00000000E+00
  0.00000000E+00  0.00000000E+00  0.00000000E+00
  0.00000000E+00  0.00000000E+00  0.00000000E+00
  0.00000000E+00  0.00000000E+00  0.00000000E+00
  0.00000000E+00  0.00000000E+00  0.00000000E+00
  0.00000000E+00  0.00000000E+00  0.00000000E+00
  0.00000000E+00  0.00000000E+00  0.00000000E+00
  0.00000000E+00  0.00000000E+00  0.00000000E+00
  0.00000000E+00  0.00000000E+00  0.00000000E+00
  0.00000000E+00  0.00000000E+00  0.00000000E+00
  0.00000000E+00  0.00000000E+00  0.00000000E+00
  0.00000000E+00  0.00000000E+00  0.00000000E+00
  0.00000000E+00  0.00000000E+00  0.00000000E+00
  0.00000000E+00  0.00000000E+00  0.00000000E+00
  0.00000000E+00  0.00000000E+00  0.00000000E+00
  0.00000000E+00  0.00000000E+00  0.00000000E+00
  0.00000000E+00  0.00000000E+00  0.00000000E+00
  0.00000000E+00  0.00000000E+00  0.00000000E+00
  0.00000000E+00  0.00000000E+00  0.00000000E+00
  0.00000000E+00  0.00000000E+00  0.00000000E+00
  0.00000000E+00  0.00000000E+00  0.00000000E+00
  0.00000000E+00  0.00000000E+00  0.00000000E+00
  0.00000000E+00  0.00000000E+00  0.00000000E+00
  0.00000000E+00  0.00000000E+00  0.00000000E+00
  0.00000000E+00  0.00000000E+00  0.00000000E+00
  0.00000000E+00  0.00000000E+00  0.00000000E+00
  0.00000000E+00  0.00000000E+00  0.00000000E+00
  0.00000000E+00  0.00000000E+00  0.00000000E+00
  0.00000000E+00  0.00000000E+00  0.00000000E+00
  0.00000000E+00  0.00000000E+00  0.00000000E+00
  0.00000000E+00  0.00000000E+00  0.00000000E+00
  0.00000000E+00  0.00000000E+00  0.00000000E+00
  0.00000000E+00  0.00000000E+00  0.00000000E+00
  0.00000000E+00  0.00000000E+00  0.00000000E+00
  0.00000000E+00  0.00000000E+00  0.00000000E+00
  0.00000000E+00  0.00000000E+00  0.00000000E+00
  0.00000000E+00  0.00000000E+00  0.00000000E+00
  0.00000000E+00  0.00000000E+00  0.00000000E+00
  0.00000000E+00  0.00000000E+00  0.00000000E+00
  0.00000000E+00  0.00000000E+00  0.00000000E+00
  0.00000000E+00  0.00000000E+00  0.00000000E+00
  0.00000000E+00  0.00000000E+00  0.00000000E+00
  0.00000000E+00  0.00000000E+00  0.00000000E+00
  0.00000000E+00  0.00000000E+00  0.00000000E+00
  0.00000000E+00  0.00000000E+00  0.00000000E+00
  0.00000000E+00  0.00000000E+00  0.00000000E+00
  0.00000000E+00  0.00000000E+00  0.00000000E+00
  0.00000000E+00  0.00000000E+00  0.00000000E+00
  0.00000000E+00  0.00000000E+00  0.00000000E+00
  0.00000000E+00  0.00000000E+00  0.00000000E+00
  0.00000000E+00  0.00000000E+00  0.00000000E+00
  0.00000000E+00  0.00000000E+00  0.00000000E+00
  0.00000000E+00  0.00000000E+00  0.00000000E+00
  0.00000000E+00  0.00000000E+00  0.00000000E+00
  0.00000000E+00  0.00000000E+00  0.00000000E+00
  0.00000000E+00  0.00000000E+00  0.00000000E+00
  0.00000000E+00  0.00000000E+00  0.00000000E+00
  0.00000000E+00  0.00000000E+00  0.00000000E+00
  0.00000000E+00  0.00000000E+00  0.00000000E+00
  0.00000000E+00  0.00000000E+00  0.00000000E+00
  0.00000000E+00  0.00000000E+00  0.00000000E+00
  0.00000000E+00  0.00000000E+00  0.00000000E+00
  0.00000000E+00  0.00000000E+00  0.00000000E+00
  0.00000000E+00  0.00000000E+00  0.00000000E+00
  0.00000000E+00  0.00000000E+00  0.00000000E+00
  0.00000000E+00  0.00000000E+00  0.00000000E+00
  0.00000000E+00  0.00000000E+00  0.00000000E+00
  0.00000000E+00  0.00000000E+00  0.00000000E+00
  0.00000000E+00  0.00000000E+00  0.00000000E+00
  0.00000000E+00  0.00000000E+00  0.00000000E+00
  0.00000000E+00  0.00000000E+00  0.00000000E+00
  0.00000000E+00  0.00000000E+00  0.00000000E+00
  0.00000000E+00  0.00000000E+00  0.00000000E+00
  0.00000000E+00  0.00000000E+00  0.00000000E+00
  0.00000000E+00  0.00000000E+00  0.00000000E+00
  0.00000000E+00  0.00000000E+00  0.00000000E+00
  0.00000000E+00  0.00000000E+00  0.00000000E+00
  0.00000000E+00  0.00000000E+00  0.00000000E+00
  0.00000000E+00  0.00000000E+00  0.00000000E+00
  0.00000000E+00  0.00000000E+00  0.00000000E+00
  0.00000000E+00  0.00000000E+00  0.00000000E+00
  0.00000000E+00  0.00000000E+00  0.00000000E+00
  0.00000000E+00  0.00000000E+00  0.00000000E+00
  0.00000000E+00  0.00000000E+00  0.00000000E+00
  0.00000000E+00  0.00000000E+00  0.00000000E+00
  0.00000000E+00  0.00000000E+00  0.00000000E+00
  0.00000000E+00  0.00000000E+00  0.00000000E+00
  0.00000000E+00  0.00000000E+00  0.00000000E+00
  0.00000000E+00  0.00000000E+00  0.00000000E+00
  0.00000000E+00  0.00000000E+00  0.00000000E+00
  0.00000000E+00  0.00000000E+00  0.00000000E+00
  0.00000000E+00  0.00000000E+00  0.00000000E+00
  0.00000000E+00  0.00000000E+00  0.00000000E+00
  0.00000000E+00  0.00000000E+00  0.00000000E+00
  0.00000000E+00  0.00000000E+00  0.00000000E+00
  0.00000000E+00  0.00000000E+00  0.00000000E+00
