pymatgen with grid density = 129 / number of atoms
0
Gamma
4 4 4
