-40.0% N(Distort)=1 ~[0.5,0.5,0.5]      
   1.00000000000000     
    12.5998379999999983    0.0000000000000004    0.0000000000000004
     0.0000000000000004   12.5998379999999983   -0.0000000000000004
    -0.0000000000000004   -0.0000000000000004   12.5998379999999983
   Mg   O 
   109   107
Direct
  0.6652852716238993  0.9980399606205440  0.0029225438102522
  0.8327537993002080  0.1605411209978770  0.3385889764778158
  0.8328204754952826  0.9901235000562227  0.1684280631266088
  0.3318475283993414  0.9985550467580863  0.0023326884350378
  0.4972081599053733  0.1640247671746188  0.0013725352760385
  0.6639283376962217  0.3310910305570249  0.0041618621957485
  0.8333744532018823  0.5014545608025355  0.0037590269244592
  0.4975731877112888  0.9980355687711208  0.1687151895586295
  0.6574337469713442  0.1643292949047512  0.1688443661963737
  0.8329563316537618  0.3399699326814780  0.1681137574036453
  0.6652968454936832  0.9987935659763693  0.3352408283924235
  0.8324785398816889  0.1629523352110006  0.9969537045771503
  0.8333737622057769  0.9962670598515990  0.5019567496749190
  0.9996955503387671  0.9987910409821018  0.0021887958899663
  0.1665356560027619  0.1651066770387871  0.0010819320133061
  0.3312889663873368  0.3315803840084611  0.0012198734359150
  0.4980654489437271  0.4988756782595190  0.9995804303738566
  0.6653153097917311  0.6662499147106800  0.0020914831624011
  0.8327972665568182  0.8320972224979248  0.0026718483172621
  0.1670121453579453  0.9979883515774981  0.1685202556117759
  0.3318140247513789  0.1646498791450769  0.1681759197052432
  0.4971768685480002  0.3283076425188634  0.1639133815963319
  0.6654358103741898  0.4997350843562685  0.1662446294487192
  0.8341139927935640  0.6669839755543232  0.1673920977946833
  0.3321821566523087  0.9993540176484478  0.3351740694886976
  0.4976586576224547  0.1643030000834707  0.3352985424565721
  0.6648784725406290  0.3311583848400338  0.3341559806639436
  0.8351357678054310  0.5027728845651137  0.3322312999529037
  0.4982667377167449  0.0013826141000822  0.5025883297499979
  0.6658099872673333  0.1619830738555603  0.5039761565063275
  0.8462730650270031  0.3178094389566198  0.4830640446354310
  0.6640304427220778  0.9969893541633097  0.6701528970686498
  0.8324024759890125  0.1523167646056611  0.6698045835951340
  0.8324530869323956  0.9967425194596894  0.8369967976778269
  0.0006372586287236  0.3318426535383143  0.0030662810867905
  0.1657165734283745  0.4992662449325234  0.0012709772162101
  0.3321656195921464  0.6662914584327722  0.0015406629714944
  0.4985323530203635  0.8324670477539943  0.0022315613033446
  0.0079540959001053  0.1648473867232683  0.1681341004113645
  0.1671778428249290  0.3322427241311552  0.1675285936190254
  0.3273035552643743  0.4990333525643342  0.1627525703973901
  0.4987892084811842  0.6661728387409748  0.1656297064958584
  0.6650962560700047  0.8327112678991037  0.1676066112035896
  0.0003216167505820  0.9982604464296029  0.3347779495034221
  0.1670411422160216  0.1646789515489558  0.3353675164491804
  0.3298107035519301  0.3294330543652914  0.3348838411286347
  0.4825564541721190  0.4876723493744257  0.3095019957187114
  0.6715983643942411  0.6728612906855013  0.3286056031126131
  0.8341520952613390  0.8327783144122448  0.3350622761794212
  0.1656323196855030  0.9996377171264849  0.5021608175115090
  0.3318241693368544  0.1653066997992391  0.5024252121684688
  0.4990927978056999  0.3279161709693432  0.5023336653540078
  0.7184964899488087  0.4609554538090168  0.5414400927410447
  0.8353090129472229  0.6687135495436570  0.4999892417044048
  0.3313734521969229  0.9997044262710142  0.6697653977112789
  0.4966470618824189  0.1626036453920426  0.6702311426442636
  0.6560166029521551  0.3209052082360772  0.6808355664758441
  0.8463236855580025  0.5180568490557859  0.6860704556594059
  0.4982130302356792  0.9990216102615742  0.8370893759066572
  0.6648962089825668  0.1624723295007164  0.8378141657189530
  0.8322810494111744  0.3319638052281716  0.8487637127051861
  0.0002725859246393  0.6666233909111012  0.0026033053186162
  0.1660177633409589  0.8326249167033863  0.0023188213462036
  0.0010427081442266  0.5004336261459916  0.1679228515659195
  0.1659449952765820  0.6663204785761503  0.1686515860641954
  0.3322045172683609  0.8320595434090299  0.1689911081213090
  0.0037544700206615  0.3323388105043646  0.3313926857534532
  0.1652112812513905  0.4992528869032192  0.3340508082580586
  0.3310011946151047  0.6654924388418357  0.3359085856373683
  0.4989399635460981  0.8355328436235905  0.3353637593171669
  0.0030856378840691  0.1629125468538641  0.5023915545396185
  0.1670948407958490  0.3320096018252991  0.5011138335118510
  0.3296405290951793  0.4993609420233159  0.5019694487681889
  0.4830238529452253  0.6916496025109518  0.5136875466046916
  0.6662732575405225  0.8348206635161461  0.5026948397998173
  0.0005594598231542  0.9979151438565421  0.6693856621261980
  0.1658162293522750  0.1658838358913736  0.6691275144490790
  0.3320572124490429  0.3323680578203851  0.6690130950606166
  0.4990400509901135  0.4990376157884379  0.6738635955432837
  0.6648893449569426  0.6670499912399839  0.6703372401407431
  0.8329182778176029  0.8327915885925823  0.6696391716517003
  0.1655338156305175  0.9992161037511801  0.8359747125653988
  0.3314773798512748  0.1652929567636618  0.8356484311745194
  0.4966506345719653  0.3311219626061001  0.8386765031996022
  0.6659631058801352  0.4982806378514117  0.8397032023702740
  0.8327717713795113  0.6700180797639704  0.8401115259875869
  0.0005218427084537  0.8316560802204497  0.1685902565726373
  0.0005324342500728  0.6664100827110545  0.3349507731232765
  0.1657844225382272  0.8325030981357244  0.3352019393866253
  0.0033945975652495  0.5003545974481647  0.5009694732153968
  0.1652829099222051  0.6673313252214981  0.5021575641744308
  0.3274212730293175  0.8383852324956960  0.5025352655851293
  0.0021953212624956  0.3344407595950326  0.6669338203518197
  0.1670873582770548  0.5002522475791326  0.6694125481847261
  0.3299120483888217  0.6664719116216299  0.6719198592302870
  0.4982359295002229  0.8371911665171951  0.6737008934170290
  0.9986474121738601  0.1658110404941524  0.8343903075446918
  0.1657574380680008  0.3321962832825492  0.8352389500788092
  0.3317821973036290  0.4991174432765971  0.8359181471674126
  0.4986807624530813  0.6666885026339644  0.8369217909915113
  0.6654000410548943  0.8325030249723318  0.8367708471142561
  0.0003047853513971  0.8331122556428954  0.5019708981550457
  0.0036990346304500  0.6697322440376314  0.6689111389917205
  0.1662032329030776  0.8336051887999704  0.6697116580655929
  0.0030428614910157  0.4995917691688964  0.8386292485283162
  0.1660205499911400  0.6665964918949567  0.8364185902827335
  0.3317703761484534  0.8329741068002581  0.8364747843508242
  0.9999010878407072  0.8330655942570575  0.8362834478902651
  0.5790547569404908  0.5468642238635264  0.4536833153591135
  0.8113820729125587  0.3016823641071791  0.6996343802877059
  0.9979705395027287  0.3301315658210920  0.1680255257308799
  0.9972093638081242  0.1649469675850586  0.3326473150104535
  0.4972865281904187  0.1646608961207039  0.1686445142929064
  0.6665342697714477  0.3304859567800869  0.1691445949662773
  0.8320320222844489  0.5008777924346797  0.1689878019442123
  0.9996870362532916  0.6660336743417904  0.1685717651016634
  0.6678673358537272  0.1651876255917419  0.3333793662394560
  0.8329246415596174  0.3290217819108071  0.3289732896007128
  0.0009756153668611  0.4987277633122150  0.3323933791662475
  0.8343218110664570  0.1620520840695124  0.5023326439046331
  0.0042776904721528  0.3298705752180449  0.4970266628788969
  0.9978723842190486  0.1666760322129752  0.6678381737831925
  0.1675292481195322  0.1652993568623902  0.1685769161741966
  0.3326219521938816  0.3325633334164387  0.1682780602107194
  0.4979349734163820  0.4980288501171547  0.1605207114323777
  0.6646064971099789  0.6656414545282814  0.1683886510545829
  0.8321331481367744  0.8308314171171388  0.1689413807401262
  0.9974349606738863  0.0005945129301116  0.1687841470345074
  0.3325453210961302  0.1653390530833592  0.3353818126499317
  0.4985469246221074  0.3312323936539286  0.3332263183557178
  0.6627746245233846  0.4984644766326109  0.3339387483102317
  0.8326879596179535  0.6680493504845588  0.3331595540545907
  0.9992777180873570  0.8329984236242663  0.3348078025024243
  0.4994240390950687  0.1655058071197921  0.5016416372538137
  0.6695601454558572  0.3241536009045702  0.5025234150844047
  0.8465414817008687  0.5093003443301203  0.4897375433597211
  0.0011686354558001  0.6681045935072978  0.5018746623779935
  0.6621223498600839  0.1596630805282596  0.6703597790368646
  0.8446302570689231  0.3803324814104039  0.6214802702336888
  0.0043568465647292  0.5034959501828776  0.6711359237399938
  0.8314057162123825  0.1617670890768681  0.8378154687080089
  0.9975422773613039  0.3328938906515321  0.8351321475292711
  0.9971102464858742  0.1656287194561740  0.0042968992735832
  0.1653416303053771  0.4987113978264403  0.1674224144439775
  0.3341467973950794  0.6648322273010735  0.1701183799167610
  0.4994581882664718  0.8307469214231139  0.1709395028197406
  0.6672919188728421  0.0000902775703394  0.1694037645992664
  0.1667502249685259  0.3313850784026116  0.3336810674922565
  0.3295520206445159  0.4980194570941573  0.3332278266197756
  0.5028883400361388  0.6551461288125168  0.3457907892188821
  0.6650739589052014  0.8331310198996331  0.3353330464014334
  0.8324400644858914  0.9992392311941172  0.3330039372090706
  0.1664688531490401  0.1654516470846468  0.5015161956586883
  0.3339983132310548  0.3332518738755902  0.5014183815079819
  0.6626912673644726  0.6661063601145425  0.5023078138849085
  0.8320749626975813  0.8322400259833566  0.5012383986445936
  0.9990973868946125  0.9987923850635909  0.5016234988029818
  0.3320535745583474  0.1660573528278351  0.6688502821653416
  0.4982994976354903  0.3319427250392910  0.6692344583401597
  0.6689470377279201  0.4977584356787907  0.6778713897629143
  0.8327013529749892  0.6701219006268063  0.6694423752961972
  0.9996595700390759  0.8331955208933941  0.6692191701003273
  0.4986115055966248  0.1649265489267092  0.8366561721743525
  0.6624641383270781  0.3303161894142481  0.8421552821301737
  0.8342863537377002  0.4988822615257521  0.8403522715953873
  0.9988548418373424  0.6662959750707461  0.8363277066611750
  0.6672314903879640  0.1643942668446125  0.0058816091801472
  0.8323885745824580  0.3296734908030791  0.0075010577193221
  0.9991429725528022  0.4986557099448765  0.0032288953276475
  0.1661345911083195  0.8324277988897433  0.1691892173777245
  0.3325949372444357  0.9982341244951232  0.1692085523263947
  0.1663728362002049  0.6659458992955867  0.3351817956331873
  0.3341483138635115  0.8313192459860925  0.3363804234261086
  0.4993572861717789  0.9998659197520635  0.3350216479276909
  0.1667680664778057  0.4994785665821400  0.5014585122004908
  0.3298124183182756  0.6677949348160261  0.5029893704234905
  0.4979324647859608  0.8406342918552332  0.5025876642664977
  0.6665394924806107  0.9988801942696364  0.5017426510905036
  0.1660021761977032  0.3329502090550444  0.6681757475604402
  0.3339918932547020  0.4996026811484398  0.6679063264639072
  0.4982962945558683  0.6673971737897000  0.6697311332612675
  0.6647448798458214  0.8320964092131801  0.6688884816395062
  0.8323762074463658  0.9952142398067442  0.6689795604457944
  0.1646421922792717  0.1660103138751220  0.8355455452573151
  0.3320064383722555  0.3322339378149611  0.8353201460146525
  0.4989933484868723  0.4990163616550035  0.8361189911709854
  0.6661529898092556  0.6657346882444970  0.8362007966869607
  0.8323295379347192  0.8329930834462776  0.8370959689096938
  0.9986554154940211  0.9993920389896567  0.8359528918769211
  0.3319484522075746  0.1652424858173565  0.0021356991609731
  0.4979857692721700  0.3309166768648122  0.0024987239732803
  0.6664533966297170  0.4986049888973334  0.0031508384487455
  0.8324518946515799  0.6663541794984809  0.0033281860880368
  0.9990023604859729  0.8328689884290864  0.0029306516399362
  0.1659400244600580  0.9990020734149948  0.3349798393405258
  0.1654591251067808  0.8339048698428945  0.5020466459442929
  0.3317476543454453  0.0006740142795102  0.5020522136801954
  0.1670341277487645  0.6671200485861660  0.6694199106405941
  0.3326882236095823  0.8330014695160627  0.6687673572908877
  0.4978219811661532  0.9991671568247075  0.6698623366402495
  0.1666959556314926  0.4991601069999250  0.8359638255122883
  0.3325190101518398  0.6659821518918068  0.8359646398924208
  0.4988503379786976  0.8327460849452825  0.8367461613170583
  0.6655031866359850  0.9977034996961639  0.8371765652774769
  0.1653499327739362  0.3317956862510221  0.0020164724045826
  0.3316624022381250  0.4989024973388429  0.0007768361496648
  0.4990731605723653  0.6658965504087438  0.0018507243232929
  0.6657125463372712  0.8323190562651556  0.0032748331974127
  0.8323711432259512  0.9996228603751649  0.0054636033522248
  0.1655689103321502  0.9996962157001282  0.6690141676266572
  0.1658042956018873  0.8327923107836488  0.8360742045711447
  0.3319553743606923  0.9991267473113630  0.8361097140402253
  0.1661573169315401  0.6658713177736872  0.0027018090670569
  0.3325715046278448  0.8321909981431831  0.0030482487434802
  0.4990824093881848  0.9984884933609816  0.0035277991030057
  0.1653465704302073  0.9992438429988864  0.0027436850342269
 
  0.00000000E+00  0.00000000E+00  0.00000000E+00
  0.00000000E+00  0.00000000E+00  0.00000000E+00
  0.00000000E+00  0.00000000E+00  0.00000000E+00
  0.00000000E+00  0.00000000E+00  0.00000000E+00
  0.00000000E+00  0.00000000E+00  0.00000000E+00
  0.00000000E+00  0.00000000E+00  0.00000000E+00
  0.00000000E+00  0.00000000E+00  0.00000000E+00
  0.00000000E+00  0.00000000E+00  0.00000000E+00
  0.00000000E+00  0.00000000E+00  0.00000000E+00
  0.00000000E+00  0.00000000E+00  0.00000000E+00
  0.00000000E+00  0.00000000E+00  0.00000000E+00
  0.00000000E+00  0.00000000E+00  0.00000000E+00
  0.00000000E+00  0.00000000E+00  0.00000000E+00
  0.00000000E+00  0.00000000E+00  0.00000000E+00
  0.00000000E+00  0.00000000E+00  0.00000000E+00
  0.00000000E+00  0.00000000E+00  0.00000000E+00
  0.00000000E+00  0.00000000E+00  0.00000000E+00
  0.00000000E+00  0.00000000E+00  0.00000000E+00
  0.00000000E+00  0.00000000E+00  0.00000000E+00
  0.00000000E+00  0.00000000E+00  0.00000000E+00
  0.00000000E+00  0.00000000E+00  0.00000000E+00
  0.00000000E+00  0.00000000E+00  0.00000000E+00
  0.00000000E+00  0.00000000E+00  0.00000000E+00
  0.00000000E+00  0.00000000E+00  0.00000000E+00
  0.00000000E+00  0.00000000E+00  0.00000000E+00
  0.00000000E+00  0.00000000E+00  0.00000000E+00
  0.00000000E+00  0.00000000E+00  0.00000000E+00
  0.00000000E+00  0.00000000E+00  0.00000000E+00
  0.00000000E+00  0.00000000E+00  0.00000000E+00
  0.00000000E+00  0.00000000E+00  0.00000000E+00
  0.00000000E+00  0.00000000E+00  0.00000000E+00
  0.00000000E+00  0.00000000E+00  0.00000000E+00
  0.00000000E+00  0.00000000E+00  0.00000000E+00
  0.00000000E+00  0.00000000E+00  0.00000000E+00
  0.00000000E+00  0.00000000E+00  0.00000000E+00
  0.00000000E+00  0.00000000E+00  0.00000000E+00
  0.00000000E+00  0.00000000E+00  0.00000000E+00
  0.00000000E+00  0.00000000E+00  0.00000000E+00
  0.00000000E+00  0.00000000E+00  0.00000000E+00
  0.00000000E+00  0.00000000E+00  0.00000000E+00
  0.00000000E+00  0.00000000E+00  0.00000000E+00
  0.00000000E+00  0.00000000E+00  0.00000000E+00
  0.00000000E+00  0.00000000E+00  0.00000000E+00
  0.00000000E+00  0.00000000E+00  0.00000000E+00
  0.00000000E+00  0.00000000E+00  0.00000000E+00
  0.00000000E+00  0.00000000E+00  0.00000000E+00
  0.00000000E+00  0.00000000E+00  0.00000000E+00
  0.00000000E+00  0.00000000E+00  0.00000000E+00
  0.00000000E+00  0.00000000E+00  0.00000000E+00
  0.00000000E+00  0.00000000E+00  0.00000000E+00
  0.00000000E+00  0.00000000E+00  0.00000000E+00
  0.00000000E+00  0.00000000E+00  0.00000000E+00
  0.00000000E+00  0.00000000E+00  0.00000000E+00
  0.00000000E+00  0.00000000E+00  0.00000000E+00
  0.00000000E+00  0.00000000E+00  0.00000000E+00
  0.00000000E+00  0.00000000E+00  0.00000000E+00
  0.00000000E+00  0.00000000E+00  0.00000000E+00
  0.00000000E+00  0.00000000E+00  0.00000000E+00
  0.00000000E+00  0.00000000E+00  0.00000000E+00
  0.00000000E+00  0.00000000E+00  0.00000000E+00
  0.00000000E+00  0.00000000E+00  0.00000000E+00
  0.00000000E+00  0.00000000E+00  0.00000000E+00
  0.00000000E+00  0.00000000E+00  0.00000000E+00
  0.00000000E+00  0.00000000E+00  0.00000000E+00
  0.00000000E+00  0.00000000E+00  0.00000000E+00
  0.00000000E+00  0.00000000E+00  0.00000000E+00
  0.00000000E+00  0.00000000E+00  0.00000000E+00
  0.00000000E+00  0.00000000E+00  0.00000000E+00
  0.00000000E+00  0.00000000E+00  0.00000000E+00
  0.00000000E+00  0.00000000E+00  0.00000000E+00
  0.00000000E+00  0.00000000E+00  0.00000000E+00
  0.00000000E+00  0.00000000E+00  0.00000000E+00
  0.00000000E+00  0.00000000E+00  0.00000000E+00
  0.00000000E+00  0.00000000E+00  0.00000000E+00
  0.00000000E+00  0.00000000E+00  0.00000000E+00
  0.00000000E+00  0.00000000E+00  0.00000000E+00
  0.00000000E+00  0.00000000E+00  0.00000000E+00
  0.00000000E+00  0.00000000E+00  0.00000000E+00
  0.00000000E+00  0.00000000E+00  0.00000000E+00
  0.00000000E+00  0.00000000E+00  0.00000000E+00
  0.00000000E+00  0.00000000E+00  0.00000000E+00
  0.00000000E+00  0.00000000E+00  0.00000000E+00
  0.00000000E+00  0.00000000E+00  0.00000000E+00
  0.00000000E+00  0.00000000E+00  0.00000000E+00
  0.00000000E+00  0.00000000E+00  0.00000000E+00
  0.00000000E+00  0.00000000E+00  0.00000000E+00
  0.00000000E+00  0.00000000E+00  0.00000000E+00
  0.00000000E+00  0.00000000E+00  0.00000000E+00
  0.00000000E+00  0.00000000E+00  0.00000000E+00
  0.00000000E+00  0.00000000E+00  0.00000000E+00
  0.00000000E+00  0.00000000E+00  0.00000000E+00
  0.00000000E+00  0.00000000E+00  0.00000000E+00
  0.00000000E+00  0.00000000E+00  0.00000000E+00
  0.00000000E+00  0.00000000E+00  0.00000000E+00
  0.00000000E+00  0.00000000E+00  0.00000000E+00
  0.00000000E+00  0.00000000E+00  0.00000000E+00
  0.00000000E+00  0.00000000E+00  0.00000000E+00
  0.00000000E+00  0.00000000E+00  0.00000000E+00
  0.00000000E+00  0.00000000E+00  0.00000000E+00
  0.00000000E+00  0.00000000E+00  0.00000000E+00
  0.00000000E+00  0.00000000E+00  0.00000000E+00
  0.00000000E+00  0.00000000E+00  0.00000000E+00
  0.00000000E+00  0.00000000E+00  0.00000000E+00
  0.00000000E+00  0.00000000E+00  0.00000000E+00
  0.00000000E+00  0.00000000E+00  0.00000000E+00
  0.00000000E+00  0.00000000E+00  0.00000000E+00
  0.00000000E+00  0.00000000E+00  0.00000000E+00
  0.00000000E+00  0.00000000E+00  0.00000000E+00
  0.00000000E+00  0.00000000E+00  0.00000000E+00
  0.00000000E+00  0.00000000E+00  0.00000000E+00
  0.00000000E+00  0.00000000E+00  0.00000000E+00
  0.00000000E+00  0.00000000E+00  0.00000000E+00
  0.00000000E+00  0.00000000E+00  0.00000000E+00
  0.00000000E+00  0.00000000E+00  0.00000000E+00
  0.00000000E+00  0.00000000E+00  0.00000000E+00
  0.00000000E+00  0.00000000E+00  0.00000000E+00
  0.00000000E+00  0.00000000E+00  0.00000000E+00
  0.00000000E+00  0.00000000E+00  0.00000000E+00
  0.00000000E+00  0.00000000E+00  0.00000000E+00
  0.00000000E+00  0.00000000E+00  0.00000000E+00
  0.00000000E+00  0.00000000E+00  0.00000000E+00
  0.00000000E+00  0.00000000E+00  0.00000000E+00
  0.00000000E+00  0.00000000E+00  0.00000000E+00
  0.00000000E+00  0.00000000E+00  0.00000000E+00
  0.00000000E+00  0.00000000E+00  0.00000000E+00
  0.00000000E+00  0.00000000E+00  0.00000000E+00
  0.00000000E+00  0.00000000E+00  0.00000000E+00
  0.00000000E+00  0.00000000E+00  0.00000000E+00
  0.00000000E+00  0.00000000E+00  0.00000000E+00
  0.00000000E+00  0.00000000E+00  0.00000000E+00
  0.00000000E+00  0.00000000E+00  0.00000000E+00
  0.00000000E+00  0.00000000E+00  0.00000000E+00
  0.00000000E+00  0.00000000E+00  0.00000000E+00
  0.00000000E+00  0.00000000E+00  0.00000000E+00
  0.00000000E+00  0.00000000E+00  0.00000000E+00
  0.00000000E+00  0.00000000E+00  0.00000000E+00
  0.00000000E+00  0.00000000E+00  0.00000000E+00
  0.00000000E+00  0.00000000E+00  0.00000000E+00
  0.00000000E+00  0.00000000E+00  0.00000000E+00
  0.00000000E+00  0.00000000E+00  0.00000000E+00
  0.00000000E+00  0.00000000E+00  0.00000000E+00
  0.00000000E+00  0.00000000E+00  0.00000000E+00
  0.00000000E+00  0.00000000E+00  0.00000000E+00
  0.00000000E+00  0.00000000E+00  0.00000000E+00
  0.00000000E+00  0.00000000E+00  0.00000000E+00
  0.00000000E+00  0.00000000E+00  0.00000000E+00
  0.00000000E+00  0.00000000E+00  0.00000000E+00
  0.00000000E+00  0.00000000E+00  0.00000000E+00
  0.00000000E+00  0.00000000E+00  0.00000000E+00
  0.00000000E+00  0.00000000E+00  0.00000000E+00
  0.00000000E+00  0.00000000E+00  0.00000000E+00
  0.00000000E+00  0.00000000E+00  0.00000000E+00
  0.00000000E+00  0.00000000E+00  0.00000000E+00
  0.00000000E+00  0.00000000E+00  0.00000000E+00
  0.00000000E+00  0.00000000E+00  0.00000000E+00
  0.00000000E+00  0.00000000E+00  0.00000000E+00
  0.00000000E+00  0.00000000E+00  0.00000000E+00
  0.00000000E+00  0.00000000E+00  0.00000000E+00
  0.00000000E+00  0.00000000E+00  0.00000000E+00
  0.00000000E+00  0.00000000E+00  0.00000000E+00
  0.00000000E+00  0.00000000E+00  0.00000000E+00
  0.00000000E+00  0.00000000E+00  0.00000000E+00
  0.00000000E+00  0.00000000E+00  0.00000000E+00
  0.00000000E+00  0.00000000E+00  0.00000000E+00
  0.00000000E+00  0.00000000E+00  0.00000000E+00
  0.00000000E+00  0.00000000E+00  0.00000000E+00
  0.00000000E+00  0.00000000E+00  0.00000000E+00
  0.00000000E+00  0.00000000E+00  0.00000000E+00
  0.00000000E+00  0.00000000E+00  0.00000000E+00
  0.00000000E+00  0.00000000E+00  0.00000000E+00
  0.00000000E+00  0.00000000E+00  0.00000000E+00
  0.00000000E+00  0.00000000E+00  0.00000000E+00
  0.00000000E+00  0.00000000E+00  0.00000000E+00
  0.00000000E+00  0.00000000E+00  0.00000000E+00
  0.00000000E+00  0.00000000E+00  0.00000000E+00
  0.00000000E+00  0.00000000E+00  0.00000000E+00
  0.00000000E+00  0.00000000E+00  0.00000000E+00
  0.00000000E+00  0.00000000E+00  0.00000000E+00
  0.00000000E+00  0.00000000E+00  0.00000000E+00
  0.00000000E+00  0.00000000E+00  0.00000000E+00
  0.00000000E+00  0.00000000E+00  0.00000000E+00
  0.00000000E+00  0.00000000E+00  0.00000000E+00
  0.00000000E+00  0.00000000E+00  0.00000000E+00
  0.00000000E+00  0.00000000E+00  0.00000000E+00
  0.00000000E+00  0.00000000E+00  0.00000000E+00
  0.00000000E+00  0.00000000E+00  0.00000000E+00
  0.00000000E+00  0.00000000E+00  0.00000000E+00
  0.00000000E+00  0.00000000E+00  0.00000000E+00
  0.00000000E+00  0.00000000E+00  0.00000000E+00
  0.00000000E+00  0.00000000E+00  0.00000000E+00
  0.00000000E+00  0.00000000E+00  0.00000000E+00
  0.00000000E+00  0.00000000E+00  0.00000000E+00
  0.00000000E+00  0.00000000E+00  0.00000000E+00
  0.00000000E+00  0.00000000E+00  0.00000000E+00
  0.00000000E+00  0.00000000E+00  0.00000000E+00
  0.00000000E+00  0.00000000E+00  0.00000000E+00
  0.00000000E+00  0.00000000E+00  0.00000000E+00
  0.00000000E+00  0.00000000E+00  0.00000000E+00
  0.00000000E+00  0.00000000E+00  0.00000000E+00
  0.00000000E+00  0.00000000E+00  0.00000000E+00
  0.00000000E+00  0.00000000E+00  0.00000000E+00
  0.00000000E+00  0.00000000E+00  0.00000000E+00
  0.00000000E+00  0.00000000E+00  0.00000000E+00
  0.00000000E+00  0.00000000E+00  0.00000000E+00
  0.00000000E+00  0.00000000E+00  0.00000000E+00
  0.00000000E+00  0.00000000E+00  0.00000000E+00
  0.00000000E+00  0.00000000E+00  0.00000000E+00
  0.00000000E+00  0.00000000E+00  0.00000000E+00
  0.00000000E+00  0.00000000E+00  0.00000000E+00
  0.00000000E+00  0.00000000E+00  0.00000000E+00
  0.00000000E+00  0.00000000E+00  0.00000000E+00
  0.00000000E+00  0.00000000E+00  0.00000000E+00
  0.00000000E+00  0.00000000E+00  0.00000000E+00
  0.00000000E+00  0.00000000E+00  0.00000000E+00
  0.00000000E+00  0.00000000E+00  0.00000000E+00
  0.00000000E+00  0.00000000E+00  0.00000000E+00
