-20.0% N(Distort)=3 ~[0.5,0.5,0.5]      
   1.00000000000000     
    12.5998379999999983    0.0000000000000004    0.0000000000000004
     0.0000000000000004   12.5998379999999983   -0.0000000000000004
    -0.0000000000000004   -0.0000000000000004   12.5998379999999983
   Mg   O 
   109   107
Direct
  0.6663611131473106 -0.0005008685584789  0.0005584132995748
  0.8330053729734893  0.1658291228941749  0.0006279640803006
  0.8328551190724790 -0.0005342179740962  0.1669416351323313
  0.3320713744563525 -0.0004381447935635  0.0005034178647919
  0.4992286187906161  0.1648431492126977 -0.0009616000987123
  0.6667279682257932  0.3322622545473944  0.9995855618506574
  0.8332604592001812  0.4993721715804210  0.0004539287341772
  0.4990713847158498  0.9996145028268258  0.1665354874234367
  0.6665700992766674  0.1653312497701108  0.1667281424218175
  0.8328389888903565  0.3322884161047664  0.1669380914140494
  0.6662090848767979  0.0004032564402208  0.3335724885002824
  0.8330677026539560  0.1653407292229161  0.3332251282056591
  0.8332527341838089 -0.0003864284492644  0.5007038558960126
  0.9992597705926083 -0.0004878356173356  0.0005370311510970
  0.1656284043008837  0.1658954953081101  0.0001748701780575
  0.3318450674479891  0.3321035107825882 -0.0013002696087587
  0.4990022042681532  0.4992728958757208  0.9962646829194342
  0.6662152798581802  0.6665086010883445 -0.0003025927696506
  0.8328660498243450  0.8331186313462746  0.0005899975720143
  0.1655404666167703 -0.0005624785458160  0.1667923225254689
  0.3317181922750422  0.1652536299711905  0.1660744893023082
  0.4993765475611559  0.3262183993630308  0.1593159064269571
  0.6666649238998281  0.4990739338174875  0.1636886506716182
  0.8339590622785688  0.6664096842492763  0.1658330037510396
  0.3319219781794576  0.0004777213696758  0.3330496919966663
  0.4989499438499871  0.1647726268139446  0.3324412657019484
  0.6661138864738674  0.3310054600058308  0.3336669430108486
  0.8361013324526632  0.4990664381457964  0.3331142037469569
  0.4989603952020423  0.0038414715723854  0.5008179787953134
  0.6673257281892857  0.1647758053193367  0.5008155681597550
  0.8404630162307692  0.3262268237709463  0.5004271527910116
  0.6667280781187387  0.0004696412749410  0.6678320995006417
  0.8337018118769521  0.1652677499669931  0.6680706412331493
  0.8329934028783376 -0.0005663450638889  0.8342441966061875
 -0.0007025547716394  0.3323609026891300  0.0004849944172626
  0.1645793382037289  0.4994874082388566 -0.0009793468678456
  0.3319768635381221  0.6669879548155531 -0.0004001767552269
  0.4990866472249668  0.8335221519417243  0.0004632646903645
 -0.0008276295398080  0.1658418434449448  0.1667852718966877
  0.1649768881131159  0.3320204568400975  0.1660706040095747
  0.3259852656515755  0.4996458701695135  0.1593420119235971
  0.4988060273095871  0.6669292669288410  0.1637169135201639
  0.6661458046177406  0.8342338666246615  0.1658507146040052
 -0.0007705724150071 -0.0004894164890613  0.3334420211351027
  0.1650157898479740  0.1653060372334664  0.3332046489864175
  0.3283443642398495  0.3286487941360017  0.3331787894101937
  0.4803089119971229  0.4804865953115873  0.3015530349086586
  0.6723125429895007  0.6726085737546439  0.3274701011859517
  0.8339439850250029  0.8342419402385299  0.3336581879700984
  0.1645377132170406  0.0010327187296842  0.5005711542110808
  0.3318396285443250  0.1663130018037617  0.5005650947541537
  0.4992510869113857  0.3291869274745802  0.5005214700505320
  0.6982200383230892  0.4805038159080589  0.5194267825486883
  0.8360836272413228  0.6669098824120279  0.5009764199659189
  0.3318289158954523  0.0013654727499528  0.6679650942543529
  0.4992410689716745  0.1663241302723195  0.6679394837990545
  0.6665819240831299  0.3286494565663368  0.6714158705823715
  0.8404320689314358  0.4996239203248243  0.6737982694962290
  0.4992136890652066  0.0010361111140378  0.8352283078967412
  0.6665896356223932  0.1653154420057283  0.8347736236462087
  0.8337029462864981  0.3320115339228637  0.8348070903795199
 -0.0007601782543192  0.6666177867824976  0.0005315806462527
  0.1655672563289914  0.8332464025776977  0.0006172521138748
 -0.0006687734636105  0.4993612209099539  0.1665189290337692
  0.1650174538636312  0.6668343215679804  0.1667172744161506
  0.3320125002759779  0.8331147273118210  0.1669505254141630
  0.0001845950834837  0.3322528478614490  0.3330580550297583
  0.1644752100051002  0.4992691165440700  0.3324374075908638
  0.3307682571301661  0.6664144080362900  0.3336367984720132
  0.4987969654417643  0.8364477808999387  0.3331274267010704
  0.0007218055816697  0.1648595666722479  0.5005622623363793
  0.1660176502262574  0.3321565504749476  0.5005249901223576
  0.3289248875280250  0.4995476731227589  0.5004879930112098
  0.4802288065739754  0.6985661194193783  0.5194737182685139
  0.6666394358041845  0.8364278005044310  0.5009761640856329
  0.9992780404508418 -0.0004343613133904  0.6677049248467062
  0.1660660786087555  0.1663599582868608  0.6675263931902211
  0.3326718008397206  0.3329620229251938  0.6670935339565918
  0.4992725771212156  0.4995524060332191  0.6708248253334861
  0.6661083806988382  0.6663889991567943  0.6689676048514089
  0.8328276910836724  0.8331188667508750  0.6677611900060746
  0.1656237408436932 -0.0001179021926578  0.8341701102217520
  0.3322690213101336  0.1663512704565957  0.8337211078902064
  0.4992620958978215  0.3321644737516379  0.8337453802357563
  0.6673388843886324  0.4992739943465490  0.8352871050610476
  0.8330536699226825  0.6668317357076985  0.8347153517714558
 -0.0008100524052349  0.8331205700015012  0.1669261762441242
  0.0000523863971275  0.6664982297261192  0.3335523257431038
  0.1649981965515972  0.8333393397912255  0.3332091686577766
  0.0035000077701033  0.4992663672386582  0.5007738793721686
  0.1644796872762601  0.6676178920811399  0.5007892521563435
  0.3259424575275509  0.8407715387330239  0.5003981890057139
  0.0010789323159966  0.3321136377861723  0.6679332362830087
  0.1660170384725114  0.4995303882087411  0.6678791515012840
  0.3283782115298515  0.6668897762216898  0.6713918934983926
  0.4993751179304015  0.8407472245091651  0.6738094851526490
 -0.0003801362611683  0.1658966238706447  0.8341566514466107
  0.1660794414839987  0.3325449033726579  0.8337111456979384
  0.3318813493202420  0.4995110786433937  0.8337506648096569
  0.4989765488932715  0.6676086696529840  0.8352759871267605
  0.6665760624684768  0.8333327963463173  0.8347141000496517
 -0.0006793703098734  0.8335325275127591  0.5007024023115947
  0.0001711725834181  0.6669985378262120  0.6678016525058231
  0.1649838448527230  0.8339823798994385  0.6680373310644933
  0.0007405074124966  0.4994997228020823  0.8351872328204316
  0.1650382845439858  0.6668335111684274  0.8347426072838289
  0.3317449047156864  0.8339806142476820  0.8348005067949730
 -0.0008358145566806  0.8332526936151883  0.8342194098638612
  0.5565710285620444  0.5569438625862125  0.4431754790531774
  0.8323489717917860  0.1662649678076136  0.1674529240438748
 -0.0011340658569624  0.3328807735018384  0.1671918366619350
 -0.0009663388310343  0.1660507383963033  0.3337722852351643
  0.4992030648311183  0.1649844809288162  0.1659390514052340
  0.6650012857315424  0.3337044562747138  0.1676406369312241
  0.8312125203722541  0.4995883698397509  0.1685703115656125
 -0.0010692785364488  0.6660634327683425  0.1674286373171533
  0.6658698868635405  0.1664716036764921  0.3338893004622815
  0.8321428790989686  0.3336860182773845  0.3347676137572689
  0.0001369841338124  0.4994800414481467  0.3333787773230197
  0.8338397284294066  0.1649789322444934  0.5005632053594989
  0.0016870317338202  0.3318794624058465  0.5004392740948683
 -0.0003747420475521  0.1661456635675237  0.6671926920477409
  0.1658188705020831  0.1661261602131616  0.1669621515189169
  0.3331370669223861  0.3333985500323211  0.1663810766759085
  0.4983813855294280  0.4986481096710213  0.1561411296001467
  0.6650305270677047  0.6653201982795756  0.1672935087893898
  0.8319739710614366  0.8322456985887656  0.1678204662473473
  0.9990199796355779 -0.0006971784040816  0.1672927683447779
  0.3321537927465503  0.1658174648532422  0.3333455811984298
  0.4979856323539194  0.3297826256899821  0.3310646233825862
  0.6594706893484623  0.4998907161798759  0.3403113567755501
  0.8324703993801887  0.6653025890084168  0.3347540484962755
 -0.0010854193492727  0.8326297178641443  0.3339922425772966
  0.4996643541692122  0.1670947252249451  0.5001304652474197
  0.6686944878110844  0.3297893472191110  0.5017782634392830
  0.8436386344541745  0.4986239610691752  0.5014070965222156
  0.0001309342920236  0.6666722033172269  0.5005766912803230
  0.6664423030108436  0.1658239400071994  0.6676338446532181
  0.8334187319315688  0.3333799861333129  0.6666659132652039
  0.0016789611475541  0.4996174731923751  0.6681621197899236
  0.8328336766324905  0.1661221565522573  0.8339741662770420
 -0.0003568320814858  0.3328637302574849  0.8339026541050840
 -0.0008114953724464  0.1661108770398347  0.0006059283320166
  0.1647262997447046  0.4995097519493817  0.1659425559276429
  0.3334260140559174  0.6652980414427530  0.1676250957816659
  0.4993257280661049  0.8314933353267324  0.1685821353810983
  0.6657975557610517 -0.0007621485638494  0.1674299239112990
  0.1655386398504063  0.3324606888493158  0.3333258022860454
  0.3295526270574873  0.4982756099951410  0.3310759546319802
  0.4995893293220933  0.6598382169818409  0.3402841442596780
  0.6650321229600046  0.8327926475377677  0.3347584141761042
  0.8323455674660126 -0.0007660823712954  0.3339912937679824
  0.1662478564767573  0.1665630547630985  0.5002791517280206
  0.3336614030517384  0.3339515410747402  0.4995405681348661
  0.6594936010996890  0.6598201592231737  0.5001666265994876
  0.8311987427161365  0.8314916053005001  0.5004776683771109
  0.9989531952663812 -0.0007542786285446  0.5004880887574559
  0.3329291316436636  0.1672006864878097  0.6668543664850413
  0.5002295563537831  0.3339608778708831  0.6661009439074604
  0.6686989620751069  0.4982633534039287  0.6702069792047073
  0.8321522118107870  0.6652761044910657  0.6663383893657820
 -0.0011504165002004  0.8328624648801030  0.6671883688105190
  0.4995175674329715  0.1665683046938128  0.8335163301733226
  0.6664428033164036  0.3324680689242652  0.8342333301013433
  0.8338304020438471  0.4994967554632082  0.8350603024240608
 -0.0009637577228302  0.6662762031577094  0.8340024765340632
  0.6660142855792468  0.1660515227598958  0.0007486858969850
  0.8325733153705234  0.3328940811815339  0.0009210396121047
 -0.0010057729448628  0.4995750560744789  0.0007929836108450
  0.1659694723842167  0.8326004880531919  0.1674425756973267
  0.3325562327979723 -0.0008521278351762  0.1671733537619290
  0.1661800406940505  0.6661798257828712  0.3338656786346939
  0.3334070779501579  0.8324467974984148  0.3347638780772093
  0.4991526318524743  0.0004676968537495  0.3333984551258663
  0.1667977048142009  0.4999629569418064  0.5000765746476939
  0.3295173620993202  0.6689813798119311  0.5017726580348523
  0.4983502545421169  0.8439806876716542  0.5013948886649788
  0.6663565271967108  0.0004551453728038  0.5006091801524043
  0.1668726577007264  0.3332553813018748  0.6668102227214634
  0.3336821473192371  0.5005177422758084  0.6660907585699177
  0.4979856012832596  0.6689952158499166  0.6701968769139051
  0.6650036055994024  0.8324485684652556  0.6663446185339749
  0.8325891417017652 -0.0008543375112003  0.6672035113630531
  0.1660731624317620  0.1663652924611902  0.8337187241184669
  0.3329616566712503  0.3332377788936378  0.8328809906391039
  0.4996919340617024  0.4999533362862345  0.8329417756471141
  0.6658879375568435  0.6661767753017163  0.8335535490694796
  0.8323340072298983  0.8325934115990372  0.8337761755994448
  0.9991759257736357 -0.0005501041747844  0.8339661361057207
  0.3325830209976159  0.1661422704039892  0.0001468679238693
  0.4993330593991610  0.3318786373143360  0.9980828862462576
  0.6663749733172698  0.4994897616306233 -0.0003766392732867
  0.8323493057025785  0.6660824826501073  0.0008411143601525
 -0.0009622087916689  0.8327663699822512  0.0007400648294168
  0.1657447766292821 -0.0006931278113641  0.3337685749551446
  0.1646946722067567  0.8341379289926402  0.5005642973662400
  0.3315565851308016  0.0019962642653659  0.5004928094473404
  0.1655364039449261  0.6667298761645787  0.6675924743885413
  0.3331386365048584  0.8336932284824990  0.6666405290818758
  0.4992984019365053  0.0019987823288868  0.6682093322577140
  0.1662726471785904  0.4997976705547654  0.8334855532343498
  0.3321793047654019  0.6667110101613800  0.8342373775168397
  0.4992165981518754  0.8341251323519207  0.8350595893728939
  0.6660083349334592 -0.0006947661998119  0.8340178461144623
  0.1658562029046379  0.3328520469410083  0.0001368397029216
  0.3315990817575163  0.4995619828838707 -0.0019125510230909
  0.4991607753172689  0.6666576960186700 -0.0003920759308703
  0.6658049658599954  0.8326389650428095  0.0008413317386234
  0.8325070944528069 -0.0007015078123334  0.0007646796475606
  0.1658441703942169 -0.0000841405648698  0.6672240970915250
  0.1658383409371400  0.8330938785510246  0.8339392674085996
  0.3325513025901985 -0.0000846706182320  0.8339258748351791
  0.1657785678810677  0.6662778512890221  0.0007505148487929
  0.3325842632304012  0.8328649222985559  0.0009222648658628
  0.4992884607145203  0.9992603515172488  0.0008254951831133
  0.1658214296473227 -0.0005547111091373  0.0006045240080874
 
  0.00000000E+00  0.00000000E+00  0.00000000E+00
  0.00000000E+00  0.00000000E+00  0.00000000E+00
  0.00000000E+00  0.00000000E+00  0.00000000E+00
  0.00000000E+00  0.00000000E+00  0.00000000E+00
  0.00000000E+00  0.00000000E+00  0.00000000E+00
  0.00000000E+00  0.00000000E+00  0.00000000E+00
  0.00000000E+00  0.00000000E+00  0.00000000E+00
  0.00000000E+00  0.00000000E+00  0.00000000E+00
  0.00000000E+00  0.00000000E+00  0.00000000E+00
  0.00000000E+00  0.00000000E+00  0.00000000E+00
  0.00000000E+00  0.00000000E+00  0.00000000E+00
  0.00000000E+00  0.00000000E+00  0.00000000E+00
  0.00000000E+00  0.00000000E+00  0.00000000E+00
  0.00000000E+00  0.00000000E+00  0.00000000E+00
  0.00000000E+00  0.00000000E+00  0.00000000E+00
  0.00000000E+00  0.00000000E+00  0.00000000E+00
  0.00000000E+00  0.00000000E+00  0.00000000E+00
  0.00000000E+00  0.00000000E+00  0.00000000E+00
  0.00000000E+00  0.00000000E+00  0.00000000E+00
  0.00000000E+00  0.00000000E+00  0.00000000E+00
  0.00000000E+00  0.00000000E+00  0.00000000E+00
  0.00000000E+00  0.00000000E+00  0.00000000E+00
  0.00000000E+00  0.00000000E+00  0.00000000E+00
  0.00000000E+00  0.00000000E+00  0.00000000E+00
  0.00000000E+00  0.00000000E+00  0.00000000E+00
  0.00000000E+00  0.00000000E+00  0.00000000E+00
  0.00000000E+00  0.00000000E+00  0.00000000E+00
  0.00000000E+00  0.00000000E+00  0.00000000E+00
  0.00000000E+00  0.00000000E+00  0.00000000E+00
  0.00000000E+00  0.00000000E+00  0.00000000E+00
  0.00000000E+00  0.00000000E+00  0.00000000E+00
  0.00000000E+00  0.00000000E+00  0.00000000E+00
  0.00000000E+00  0.00000000E+00  0.00000000E+00
  0.00000000E+00  0.00000000E+00  0.00000000E+00
  0.00000000E+00  0.00000000E+00  0.00000000E+00
  0.00000000E+00  0.00000000E+00  0.00000000E+00
  0.00000000E+00  0.00000000E+00  0.00000000E+00
  0.00000000E+00  0.00000000E+00  0.00000000E+00
  0.00000000E+00  0.00000000E+00  0.00000000E+00
  0.00000000E+00  0.00000000E+00  0.00000000E+00
  0.00000000E+00  0.00000000E+00  0.00000000E+00
  0.00000000E+00  0.00000000E+00  0.00000000E+00
  0.00000000E+00  0.00000000E+00  0.00000000E+00
  0.00000000E+00  0.00000000E+00  0.00000000E+00
  0.00000000E+00  0.00000000E+00  0.00000000E+00
  0.00000000E+00  0.00000000E+00  0.00000000E+00
  0.00000000E+00  0.00000000E+00  0.00000000E+00
  0.00000000E+00  0.00000000E+00  0.00000000E+00
  0.00000000E+00  0.00000000E+00  0.00000000E+00
  0.00000000E+00  0.00000000E+00  0.00000000E+00
  0.00000000E+00  0.00000000E+00  0.00000000E+00
  0.00000000E+00  0.00000000E+00  0.00000000E+00
  0.00000000E+00  0.00000000E+00  0.00000000E+00
  0.00000000E+00  0.00000000E+00  0.00000000E+00
  0.00000000E+00  0.00000000E+00  0.00000000E+00
  0.00000000E+00  0.00000000E+00  0.00000000E+00
  0.00000000E+00  0.00000000E+00  0.00000000E+00
  0.00000000E+00  0.00000000E+00  0.00000000E+00
  0.00000000E+00  0.00000000E+00  0.00000000E+00
  0.00000000E+00  0.00000000E+00  0.00000000E+00
  0.00000000E+00  0.00000000E+00  0.00000000E+00
  0.00000000E+00  0.00000000E+00  0.00000000E+00
  0.00000000E+00  0.00000000E+00  0.00000000E+00
  0.00000000E+00  0.00000000E+00  0.00000000E+00
  0.00000000E+00  0.00000000E+00  0.00000000E+00
  0.00000000E+00  0.00000000E+00  0.00000000E+00
  0.00000000E+00  0.00000000E+00  0.00000000E+00
  0.00000000E+00  0.00000000E+00  0.00000000E+00
  0.00000000E+00  0.00000000E+00  0.00000000E+00
  0.00000000E+00  0.00000000E+00  0.00000000E+00
  0.00000000E+00  0.00000000E+00  0.00000000E+00
  0.00000000E+00  0.00000000E+00  0.00000000E+00
  0.00000000E+00  0.00000000E+00  0.00000000E+00
  0.00000000E+00  0.00000000E+00  0.00000000E+00
  0.00000000E+00  0.00000000E+00  0.00000000E+00
  0.00000000E+00  0.00000000E+00  0.00000000E+00
  0.00000000E+00  0.00000000E+00  0.00000000E+00
  0.00000000E+00  0.00000000E+00  0.00000000E+00
  0.00000000E+00  0.00000000E+00  0.00000000E+00
  0.00000000E+00  0.00000000E+00  0.00000000E+00
  0.00000000E+00  0.00000000E+00  0.00000000E+00
  0.00000000E+00  0.00000000E+00  0.00000000E+00
  0.00000000E+00  0.00000000E+00  0.00000000E+00
  0.00000000E+00  0.00000000E+00  0.00000000E+00
  0.00000000E+00  0.00000000E+00  0.00000000E+00
  0.00000000E+00  0.00000000E+00  0.00000000E+00
  0.00000000E+00  0.00000000E+00  0.00000000E+00
  0.00000000E+00  0.00000000E+00  0.00000000E+00
  0.00000000E+00  0.00000000E+00  0.00000000E+00
  0.00000000E+00  0.00000000E+00  0.00000000E+00
  0.00000000E+00  0.00000000E+00  0.00000000E+00
  0.00000000E+00  0.00000000E+00  0.00000000E+00
  0.00000000E+00  0.00000000E+00  0.00000000E+00
  0.00000000E+00  0.00000000E+00  0.00000000E+00
  0.00000000E+00  0.00000000E+00  0.00000000E+00
  0.00000000E+00  0.00000000E+00  0.00000000E+00
  0.00000000E+00  0.00000000E+00  0.00000000E+00
  0.00000000E+00  0.00000000E+00  0.00000000E+00
  0.00000000E+00  0.00000000E+00  0.00000000E+00
  0.00000000E+00  0.00000000E+00  0.00000000E+00
  0.00000000E+00  0.00000000E+00  0.00000000E+00
  0.00000000E+00  0.00000000E+00  0.00000000E+00
  0.00000000E+00  0.00000000E+00  0.00000000E+00
  0.00000000E+00  0.00000000E+00  0.00000000E+00
  0.00000000E+00  0.00000000E+00  0.00000000E+00
  0.00000000E+00  0.00000000E+00  0.00000000E+00
  0.00000000E+00  0.00000000E+00  0.00000000E+00
  0.00000000E+00  0.00000000E+00  0.00000000E+00
  0.00000000E+00  0.00000000E+00  0.00000000E+00
  0.00000000E+00  0.00000000E+00  0.00000000E+00
  0.00000000E+00  0.00000000E+00  0.00000000E+00
  0.00000000E+00  0.00000000E+00  0.00000000E+00
  0.00000000E+00  0.00000000E+00  0.00000000E+00
  0.00000000E+00  0.00000000E+00  0.00000000E+00
  0.00000000E+00  0.00000000E+00  0.00000000E+00
  0.00000000E+00  0.00000000E+00  0.00000000E+00
  0.00000000E+00  0.00000000E+00  0.00000000E+00
  0.00000000E+00  0.00000000E+00  0.00000000E+00
  0.00000000E+00  0.00000000E+00  0.00000000E+00
  0.00000000E+00  0.00000000E+00  0.00000000E+00
  0.00000000E+00  0.00000000E+00  0.00000000E+00
  0.00000000E+00  0.00000000E+00  0.00000000E+00
  0.00000000E+00  0.00000000E+00  0.00000000E+00
  0.00000000E+00  0.00000000E+00  0.00000000E+00
  0.00000000E+00  0.00000000E+00  0.00000000E+00
  0.00000000E+00  0.00000000E+00  0.00000000E+00
  0.00000000E+00  0.00000000E+00  0.00000000E+00
  0.00000000E+00  0.00000000E+00  0.00000000E+00
  0.00000000E+00  0.00000000E+00  0.00000000E+00
  0.00000000E+00  0.00000000E+00  0.00000000E+00
  0.00000000E+00  0.00000000E+00  0.00000000E+00
  0.00000000E+00  0.00000000E+00  0.00000000E+00
  0.00000000E+00  0.00000000E+00  0.00000000E+00
  0.00000000E+00  0.00000000E+00  0.00000000E+00
  0.00000000E+00  0.00000000E+00  0.00000000E+00
  0.00000000E+00  0.00000000E+00  0.00000000E+00
  0.00000000E+00  0.00000000E+00  0.00000000E+00
  0.00000000E+00  0.00000000E+00  0.00000000E+00
  0.00000000E+00  0.00000000E+00  0.00000000E+00
  0.00000000E+00  0.00000000E+00  0.00000000E+00
  0.00000000E+00  0.00000000E+00  0.00000000E+00
  0.00000000E+00  0.00000000E+00  0.00000000E+00
  0.00000000E+00  0.00000000E+00  0.00000000E+00
  0.00000000E+00  0.00000000E+00  0.00000000E+00
  0.00000000E+00  0.00000000E+00  0.00000000E+00
  0.00000000E+00  0.00000000E+00  0.00000000E+00
  0.00000000E+00  0.00000000E+00  0.00000000E+00
  0.00000000E+00  0.00000000E+00  0.00000000E+00
  0.00000000E+00  0.00000000E+00  0.00000000E+00
  0.00000000E+00  0.00000000E+00  0.00000000E+00
  0.00000000E+00  0.00000000E+00  0.00000000E+00
  0.00000000E+00  0.00000000E+00  0.00000000E+00
  0.00000000E+00  0.00000000E+00  0.00000000E+00
  0.00000000E+00  0.00000000E+00  0.00000000E+00
  0.00000000E+00  0.00000000E+00  0.00000000E+00
  0.00000000E+00  0.00000000E+00  0.00000000E+00
  0.00000000E+00  0.00000000E+00  0.00000000E+00
  0.00000000E+00  0.00000000E+00  0.00000000E+00
  0.00000000E+00  0.00000000E+00  0.00000000E+00
  0.00000000E+00  0.00000000E+00  0.00000000E+00
  0.00000000E+00  0.00000000E+00  0.00000000E+00
  0.00000000E+00  0.00000000E+00  0.00000000E+00
  0.00000000E+00  0.00000000E+00  0.00000000E+00
  0.00000000E+00  0.00000000E+00  0.00000000E+00
  0.00000000E+00  0.00000000E+00  0.00000000E+00
  0.00000000E+00  0.00000000E+00  0.00000000E+00
  0.00000000E+00  0.00000000E+00  0.00000000E+00
  0.00000000E+00  0.00000000E+00  0.00000000E+00
  0.00000000E+00  0.00000000E+00  0.00000000E+00
  0.00000000E+00  0.00000000E+00  0.00000000E+00
  0.00000000E+00  0.00000000E+00  0.00000000E+00
  0.00000000E+00  0.00000000E+00  0.00000000E+00
  0.00000000E+00  0.00000000E+00  0.00000000E+00
  0.00000000E+00  0.00000000E+00  0.00000000E+00
  0.00000000E+00  0.00000000E+00  0.00000000E+00
  0.00000000E+00  0.00000000E+00  0.00000000E+00
  0.00000000E+00  0.00000000E+00  0.00000000E+00
  0.00000000E+00  0.00000000E+00  0.00000000E+00
  0.00000000E+00  0.00000000E+00  0.00000000E+00
  0.00000000E+00  0.00000000E+00  0.00000000E+00
  0.00000000E+00  0.00000000E+00  0.00000000E+00
  0.00000000E+00  0.00000000E+00  0.00000000E+00
  0.00000000E+00  0.00000000E+00  0.00000000E+00
  0.00000000E+00  0.00000000E+00  0.00000000E+00
  0.00000000E+00  0.00000000E+00  0.00000000E+00
  0.00000000E+00  0.00000000E+00  0.00000000E+00
  0.00000000E+00  0.00000000E+00  0.00000000E+00
  0.00000000E+00  0.00000000E+00  0.00000000E+00
  0.00000000E+00  0.00000000E+00  0.00000000E+00
  0.00000000E+00  0.00000000E+00  0.00000000E+00
  0.00000000E+00  0.00000000E+00  0.00000000E+00
  0.00000000E+00  0.00000000E+00  0.00000000E+00
  0.00000000E+00  0.00000000E+00  0.00000000E+00
  0.00000000E+00  0.00000000E+00  0.00000000E+00
  0.00000000E+00  0.00000000E+00  0.00000000E+00
  0.00000000E+00  0.00000000E+00  0.00000000E+00
  0.00000000E+00  0.00000000E+00  0.00000000E+00
  0.00000000E+00  0.00000000E+00  0.00000000E+00
  0.00000000E+00  0.00000000E+00  0.00000000E+00
  0.00000000E+00  0.00000000E+00  0.00000000E+00
  0.00000000E+00  0.00000000E+00  0.00000000E+00
  0.00000000E+00  0.00000000E+00  0.00000000E+00
  0.00000000E+00  0.00000000E+00  0.00000000E+00
  0.00000000E+00  0.00000000E+00  0.00000000E+00
  0.00000000E+00  0.00000000E+00  0.00000000E+00
  0.00000000E+00  0.00000000E+00  0.00000000E+00
  0.00000000E+00  0.00000000E+00  0.00000000E+00
  0.00000000E+00  0.00000000E+00  0.00000000E+00
  0.00000000E+00  0.00000000E+00  0.00000000E+00
  0.00000000E+00  0.00000000E+00  0.00000000E+00
  0.00000000E+00  0.00000000E+00  0.00000000E+00
  0.00000000E+00  0.00000000E+00  0.00000000E+00
  0.00000000E+00  0.00000000E+00  0.00000000E+00
  0.00000000E+00  0.00000000E+00  0.00000000E+00
  0.00000000E+00  0.00000000E+00  0.00000000E+00
  0.00000000E+00  0.00000000E+00  0.00000000E+00
