pymatgen with grid density = 865 / number of atoms
0
Gamma
8 8 2
