-10.0% N(Distort)=4 ~[0.5,0.5,0.5]      
   1.00000000000000     
    12.5998379999999983    0.0000000000000004    0.0000000000000004
     0.0000000000000004   12.5998379999999983   -0.0000000000000004
    -0.0000000000000004   -0.0000000000000004   12.5998379999999983
   Mg   O 
   109   107
Direct
  0.6668233164830880 -0.0005379629949570  0.0002261729312415
  0.8334545817983018  0.1657841961131113  0.0002905762311586
  0.8333038936047069 -0.0005861202848109  0.1666147030732596
  0.3325445931770131 -0.0004887596709485  0.0001426674637181
  0.4997099230639471  0.1648476728081500 -0.0013411179776744
  0.6671750185478154  0.3322195441271032  0.9991970550234199
  0.8337149512409394  0.4993242744468748  0.0000783469396311
  0.4995216776388157  0.9995807659094877  0.1661962104163419
  0.6670324845454948  0.1652951112173296  0.1663747633321372
  0.8332787761756115  0.3322232686417829  0.1666076463695818
  0.6666351897342543  0.0003367521060082  0.3332492907712202
  0.8335155184876060  0.1652986393110833  0.3328709560929328
  0.8336849278506623 -0.0004142891000171  0.5003830091059472
 -0.0002913227940525 -0.0005370193063275  0.0002144374335821
  0.1660808360402783  0.1658733918806676 -0.0001877767437670
  0.3323260052742871  0.3320774967739528 -0.0017139383296457
  0.4994718625351597  0.4992077929297048  0.9957208289390272
  0.6666694364737699  0.6664263117242962  0.9993255717482191
  0.8333125870187948  0.8330658299963963  0.0002496045731508
  0.1660006491296853 -0.0006120169658338  0.1664510781199222
  0.3321652555742810  0.1652315142148524  0.1656913215609549
  0.4998077310565089  0.3262238861655057  0.1589228099221307
  0.6671044807463343  0.4990023727425354  0.1632874872321945
  0.8343719268511982  0.6663674041652342  0.1655387712388255
  0.3324267234079535  0.0004590749148164  0.3327144974728443
  0.4994161914282251  0.1648452146818549  0.3321182945097021
  0.6665706776900858  0.3310399819565457  0.3333193282981410
  0.8366185280001063  0.4990019982949296  0.3328034458580173
  0.4994399372519346  0.0039504748912215  0.5004519408651262
  0.6677595511208934  0.1648548312020990  0.5004659651377955
  0.8409839321901676  0.3262248169337733  0.5000980041617370
  0.6671829941603531  0.0004733173361524  0.6674635541658397
  0.8342045895427946  0.1652491026773794  0.6677406129240264
  0.8334572991837104 -0.0005954778655124  0.8339126602052659
 -0.0002519009623555  0.3323286187998137  0.0001390350206510
  0.1651112045607804  0.4994777052658123 -0.0013672235936013
  0.3324839522968124  0.6669278671309916 -0.0008116947883279
  0.4995611986436526  0.8334521330943861  0.0000783339438688
 -0.0003854937388954  0.1657891838234482  0.1664590506683490
  0.1654592331302920  0.3319818758550261  0.1656870301266746
  0.3265331421384129  0.4995671774813977  0.1589282574206741
  0.4992687662244476  0.6668331754690400  0.1632989931325786
  0.6665849419915137  0.8341193312821448  0.1655677673008685
 -0.0003364685697648 -0.0005499652040350  0.3331117613371881
  0.1654962748314064  0.1652943904630854  0.3328456965454318
  0.3288975215830883  0.3286784465621003  0.3327724861143108
  0.4810220005945753  0.4806982823901483  0.3009386147924507
  0.6725003899162710  0.6722753986796499  0.3273962470547699
  0.8343084284248159  0.8341129591152305  0.3333340201927805
  0.1650567302095448  0.0010329986840755  0.5002040288191463
  0.3323612098459825  0.1663633896994549  0.5001755761667053
  0.4996912103085159  0.3294779087899481  0.5001803083994840
  0.6989602791085145  0.4807083766500707  0.5188270145190940
  0.8365994501399000  0.6668394220179950  0.5006349319869746
  0.3323169578052752  0.0013837159399899  0.6675806114975201
  0.4997188851741974  0.1663778717567813  0.6675228344121104
  0.6671145431391670  0.3286955354335797  0.6709576152500520
  0.8409693263827703  0.4995913443093482  0.6733655942228501
  0.4997141081878254  0.0010379555476640  0.8348339225159931
  0.6670625210534995  0.1653113678162901  0.8343826977461939
  0.8342074190505290  0.3319841353880904  0.8344377006585877
 -0.0002764125000231  0.6665765802965139  0.0001925846914674
  0.1660353027733612  0.8331962375628159  0.0002741286692433
 -0.0001780697735740  0.4993137899528953  0.1661848495705265
  0.1655708407713715  0.6667914813413972  0.1663626976262124
  0.3324668457228581  0.8330406710163770  0.1666106701791828
  0.0006806833128578  0.3322113285358953  0.3327270058044111
  0.1650901009621822  0.4992118533370186  0.3320943351667726
  0.3313103593789341  0.6663447471238795  0.3333032698761951
  0.4992498103982033  0.8364073184289630  0.3328113870327267
  0.0012332849423244  0.1648436726864730  0.5002107978950591
  0.1665806745792716  0.3321695956926407  0.5001631169965195
  0.3297011954566001  0.4994654706144140  0.5001602793114338
  0.4809826894545283  0.6987832608858605  0.5188589954648326
  0.6670764265414115  0.8363940339885272  0.5006420064975063
  0.9997427086307491 -0.0004796409139586  0.6673727859812713
  0.1665371440510476  0.1663224889132730  0.6671728800816384
  0.3331238710584322  0.3329086904667855  0.6667594236051019
  0.4997239118844570  0.4994694652282460  0.6701486468372212
  0.6665948634455346  0.6663465241021633  0.6685607621651678
  0.8332773566170082  0.8330491802341541  0.6674338667603205
  0.1660959065628392 -0.0001542722679288  0.8338152021927590
  0.3327403417764209  0.1663183314560112  0.8333612810972924
  0.4997348098236735  0.3321679949417284  0.8332981234055100
  0.6678121105232239  0.4992249871001680  0.8347841717902800
  0.8335430246060687  0.6668038129499836  0.8343455189669797
 -0.0003359377945050  0.8330671362439749  0.1666179972260157
  0.0005607059417183  0.6664156898849583  0.3332307721065256
  0.1655406663893265  0.8332980962648436  0.3328697016730325
  0.0041683021250520  0.4992189041427597  0.5004271632684706
  0.1650917929308393  0.6675487655061053  0.5004176455651954
  0.3265107848778347  0.8407812211055280  0.5000782765360445
  0.0016094822081837  0.3320927938194386  0.6675786133753000
  0.1665991476774984  0.4994947610551135  0.6674912330503904
  0.3289603439948133  0.6668599771268104  0.6709153144349382
  0.4998261193246105  0.8407677804309501  0.6733684820502296
  0.0000962500079708  0.1658747502002823  0.8338169144916864
  0.1665540820205925  0.3325098446461530  0.8333512287027227
  0.3324142511079903  0.4994828195090557  0.8332890493117970
  0.4994868686966389  0.6675425150171886  0.8347768519208215
  0.6670440202301012  0.8333050633447533  0.8343489332960471
 -0.0001969872145498  0.8334552945860626  0.5003595915776782
  0.0006955815881403  0.6669436591021219  0.6674306451733570
  0.1654946396476644  0.8339529075680696  0.6676823283897086
  0.0012673698509705  0.4994763968988321  0.8347990625610087
  0.1655733507021795  0.6668247765833800  0.8343261240429243
  0.3322220404758937  0.8339526806686574  0.8343926168599576
 -0.0003636971579925  0.8332027730347419  0.8338830807031304
  0.5563392566885906  0.5561578728029907  0.4435432172800919
  0.8328271400004289  0.1661960925638360  0.1670748662239999
 -0.0006229516753810  0.3328125869980472  0.1668300691371378
 -0.0004687261490500  0.1660166498128278  0.3334544417821206
  0.4996519172165844  0.1649939404284473  0.1656011640054791
  0.6654495299563049  0.3336083808743437  0.1672452043635343
  0.8316643171908020  0.4995023097856527  0.1682320623022028
 -0.0005445278401255  0.6659937610934789  0.1670747752987505
  0.6663403456717565  0.1664907667905420  0.3335398000033310
  0.8326270728382138  0.3336050105622897  0.3344532874198939
  0.0007636385495911  0.4993835412466753  0.3330252622792240
  0.8342839793755864  0.1650059806485677  0.5002598771065802
  0.0022895561337487  0.3318151378531343  0.5001206383360660
  0.0001626623945327  0.1661355035291025  0.6668264938883454
  0.1663118272384891  0.1661007329851035  0.1665639769167277
  0.3335464567856453  0.3333211281228144  0.1659398588516008
  0.4987795282708540  0.4985153796176122  0.1554676387066825
  0.6654531028898141  0.6651968261779623  0.1669730748044610
  0.8324690386577862  0.8322283799537317  0.1674264252450363
 -0.0004877204909770 -0.0007332958675265  0.1669389035434054
  0.3326181509335157  0.1658459287259296  0.3329839886748963
  0.4983905866432448  0.3298223994888377  0.3308160982190743
  0.6596031749550889  0.4996742851733263  0.3403066437265048
  0.8329187089274260  0.6651971430317289  0.3344539116019828
 -0.0005832020154519  0.8325725850725988  0.3336709600219665
  0.5000972702675633  0.1672094615758842  0.4997891646206979
  0.6690597221789468  0.3298176976044622  0.5014884331983003
  0.8444312335536633  0.4985168953175347  0.5011286018936862
  0.0007641762014575  0.6666133754565282  0.5002509394385528
  0.6669009911436465  0.1658558860779612  0.6672558929193444
  0.8339434191881037  0.3333232657455338  0.6663549914854220
  0.0023086618790474  0.4995338852825919  0.6678425537020447
  0.8333465728443682  0.1660958241532622  0.8336003487868558
  0.0001770565882600  0.3328542709672898  0.8335301719994279
 -0.0003026750699113  0.1660883827691755  0.0002143361305012
  0.1652685960256362  0.4994383623190103  0.1655784994450808
  0.3338907746442136  0.6651937832793481  0.1672182335860076
  0.4997460417696535  0.8314177494596655  0.1682353297497754
  0.6662362817360185 -0.0007982964824773  0.1670744586159311
  0.1660790564127349  0.3324227205574427  0.3329772414696925
  0.3301438458908821  0.4981289865147749  0.3307997602620945
  0.4999174507736872  0.6594276616121113  0.3402966093838223
  0.6654260152320886  0.8326953555031472  0.3344559420814569
  0.8328119579468573 -0.0008063157870124  0.3336755077361860
  0.1667920606634286  0.1666036713384345  0.4999433547114583
  0.3340864297523530  0.3338542277497079  0.4992269940128045
  0.6596060214405931  0.6594226078325434  0.4999640446674990
  0.8316461223012449  0.8314231153054351  0.5001485828889040
  0.9994527712028022 -0.0007709456893537  0.5001823650528994
  0.3334107477479498  0.1672092212133438  0.6664873081661354
  0.5006553937145940  0.3338675641658925  0.6657646355456937
  0.6691134756996959  0.4981440646789789  0.6697285917015180
  0.8326743342585442  0.6652208014038851  0.6660057883151366
 -0.0006216820785527  0.8328315321138658  0.6668576117590769
  0.4999748881453205  0.1666141905837547  0.8330979333381999
  0.6669093901407369  0.3324258237422465  0.8337925861228989
  0.8343180678814849  0.4994545821490698  0.8346393377762490
 -0.0004133501674306  0.6662170241326008  0.8336143153483531
  0.6664674521635110  0.1660226458300643  0.0003426891778762
  0.8330658037631266  0.3328182594625455  0.0005184961467391
 -0.0004985643767107  0.4994992474580768  0.0004001187949107
  0.1664510327307828  0.8325727429634591  0.1670581685581965
  0.3330188057075302 -0.0008723701376269  0.1668074793094312
  0.1667582676735349  0.6661305923314331  0.3335191532141747
  0.3338350582467942  0.8324213978658643  0.3344392751235967
  0.4995975190449919  0.0005172314603010  0.3330253681132815
  0.1674622520540941  0.4998825920818089  0.4997484122559882
  0.3300915141769821  0.6688298517907981  0.5014807601119534
  0.4987447853581720  0.8442163797179780  0.5011339292556640
  0.6668373095199960  0.0005050176170151  0.5002659047281404
  0.1674540540927247  0.3332037840426923  0.6664650732757587
  0.3341366227739911  0.5003956034856992  0.6657522081825575
  0.4984022873896889  0.6688347155566310  0.6697546065158847
  0.6654580399494312  0.8324355822792109  0.6660395747716834
  0.8330794831490529 -0.0008587418638283  0.6668790412189403
  0.1665841060286661  0.1663632690471268  0.8333245220542682
  0.3334357464020583  0.3331921186166868  0.8324326757033501
  0.5001581949773543  0.4998754357066414  0.8323938058112021
  0.6663780394141975  0.6661352115976934  0.8331201979416915
  0.8328314530836901  0.8325896787977042  0.8334519088655612
 -0.0003140234446199 -0.0005474204058681  0.8335971645500484
  0.3330784580590909  0.1661258264512871 -0.0002688950318120
  0.4997788005308133  0.3318029580743841 -0.0023978852256265
  0.6668693001560821  0.4993850322291141 -0.0008741790429597
  0.8328464746078620  0.6659973433359856  0.0004576281076797
 -0.0004596350615082  0.8327210701701641  0.0003852677743415
  0.1662140038663099 -0.0006973004034069  0.3334374139570164
  0.1652509344015026  0.8340816601452365  0.5002354455153775
  0.3320223878399728  0.0020800010109072  0.5001191967554702
  0.1661229275010937  0.6666540457740198  0.6671985399024301
  0.3335843859862210  0.8337080202786552  0.6663050265259451
  0.4997729606340441  0.0020774842871778  0.6678667910758602
  0.1668461446705054  0.4997437412342787  0.8330588971875762
  0.3327021497435990  0.6666531158401299  0.8337504483752193
  0.4996867276783946  0.8340763947336783  0.8346247820832552
  0.6664715293086476 -0.0006668074661831  0.8336576209865552
  0.1663672187827416  0.3328547548623779 -0.0002721913611197
  0.3320760301229845  0.4995063775191141  0.9975768379685640
  0.4996437032637213  0.6666031584250454 -0.0008856881085664
  0.6662339325755923  0.8325951959119436  0.0004627697316656
  0.8329910439136887 -0.0007255865293290  0.0004019423916219
  0.1663569464026171 -0.0000573963865299  0.6668242963603668
  0.1663505984485672  0.8330940540652160  0.8335551505550265
  0.3330957790980624 -0.0000628152843684  0.8335258511840902
  0.1662918644139627  0.6662077622923576  0.0003180977233864
  0.3330581426779022  0.8328229349481606  0.0005091639207890
  0.4997295246010633  0.9992383179585644  0.0004240750614994
  0.1663202683354964 -0.0005393205384262  0.0002106087436122
 
  0.00000000E+00  0.00000000E+00  0.00000000E+00
  0.00000000E+00  0.00000000E+00  0.00000000E+00
  0.00000000E+00  0.00000000E+00  0.00000000E+00
  0.00000000E+00  0.00000000E+00  0.00000000E+00
  0.00000000E+00  0.00000000E+00  0.00000000E+00
  0.00000000E+00  0.00000000E+00  0.00000000E+00
  0.00000000E+00  0.00000000E+00  0.00000000E+00
  0.00000000E+00  0.00000000E+00  0.00000000E+00
  0.00000000E+00  0.00000000E+00  0.00000000E+00
  0.00000000E+00  0.00000000E+00  0.00000000E+00
  0.00000000E+00  0.00000000E+00  0.00000000E+00
  0.00000000E+00  0.00000000E+00  0.00000000E+00
  0.00000000E+00  0.00000000E+00  0.00000000E+00
  0.00000000E+00  0.00000000E+00  0.00000000E+00
  0.00000000E+00  0.00000000E+00  0.00000000E+00
  0.00000000E+00  0.00000000E+00  0.00000000E+00
  0.00000000E+00  0.00000000E+00  0.00000000E+00
  0.00000000E+00  0.00000000E+00  0.00000000E+00
  0.00000000E+00  0.00000000E+00  0.00000000E+00
  0.00000000E+00  0.00000000E+00  0.00000000E+00
  0.00000000E+00  0.00000000E+00  0.00000000E+00
  0.00000000E+00  0.00000000E+00  0.00000000E+00
  0.00000000E+00  0.00000000E+00  0.00000000E+00
  0.00000000E+00  0.00000000E+00  0.00000000E+00
  0.00000000E+00  0.00000000E+00  0.00000000E+00
  0.00000000E+00  0.00000000E+00  0.00000000E+00
  0.00000000E+00  0.00000000E+00  0.00000000E+00
  0.00000000E+00  0.00000000E+00  0.00000000E+00
  0.00000000E+00  0.00000000E+00  0.00000000E+00
  0.00000000E+00  0.00000000E+00  0.00000000E+00
  0.00000000E+00  0.00000000E+00  0.00000000E+00
  0.00000000E+00  0.00000000E+00  0.00000000E+00
  0.00000000E+00  0.00000000E+00  0.00000000E+00
  0.00000000E+00  0.00000000E+00  0.00000000E+00
  0.00000000E+00  0.00000000E+00  0.00000000E+00
  0.00000000E+00  0.00000000E+00  0.00000000E+00
  0.00000000E+00  0.00000000E+00  0.00000000E+00
  0.00000000E+00  0.00000000E+00  0.00000000E+00
  0.00000000E+00  0.00000000E+00  0.00000000E+00
  0.00000000E+00  0.00000000E+00  0.00000000E+00
  0.00000000E+00  0.00000000E+00  0.00000000E+00
  0.00000000E+00  0.00000000E+00  0.00000000E+00
  0.00000000E+00  0.00000000E+00  0.00000000E+00
  0.00000000E+00  0.00000000E+00  0.00000000E+00
  0.00000000E+00  0.00000000E+00  0.00000000E+00
  0.00000000E+00  0.00000000E+00  0.00000000E+00
  0.00000000E+00  0.00000000E+00  0.00000000E+00
  0.00000000E+00  0.00000000E+00  0.00000000E+00
  0.00000000E+00  0.00000000E+00  0.00000000E+00
  0.00000000E+00  0.00000000E+00  0.00000000E+00
  0.00000000E+00  0.00000000E+00  0.00000000E+00
  0.00000000E+00  0.00000000E+00  0.00000000E+00
  0.00000000E+00  0.00000000E+00  0.00000000E+00
  0.00000000E+00  0.00000000E+00  0.00000000E+00
  0.00000000E+00  0.00000000E+00  0.00000000E+00
  0.00000000E+00  0.00000000E+00  0.00000000E+00
  0.00000000E+00  0.00000000E+00  0.00000000E+00
  0.00000000E+00  0.00000000E+00  0.00000000E+00
  0.00000000E+00  0.00000000E+00  0.00000000E+00
  0.00000000E+00  0.00000000E+00  0.00000000E+00
  0.00000000E+00  0.00000000E+00  0.00000000E+00
  0.00000000E+00  0.00000000E+00  0.00000000E+00
  0.00000000E+00  0.00000000E+00  0.00000000E+00
  0.00000000E+00  0.00000000E+00  0.00000000E+00
  0.00000000E+00  0.00000000E+00  0.00000000E+00
  0.00000000E+00  0.00000000E+00  0.00000000E+00
  0.00000000E+00  0.00000000E+00  0.00000000E+00
  0.00000000E+00  0.00000000E+00  0.00000000E+00
  0.00000000E+00  0.00000000E+00  0.00000000E+00
  0.00000000E+00  0.00000000E+00  0.00000000E+00
  0.00000000E+00  0.00000000E+00  0.00000000E+00
  0.00000000E+00  0.00000000E+00  0.00000000E+00
  0.00000000E+00  0.00000000E+00  0.00000000E+00
  0.00000000E+00  0.00000000E+00  0.00000000E+00
  0.00000000E+00  0.00000000E+00  0.00000000E+00
  0.00000000E+00  0.00000000E+00  0.00000000E+00
  0.00000000E+00  0.00000000E+00  0.00000000E+00
  0.00000000E+00  0.00000000E+00  0.00000000E+00
  0.00000000E+00  0.00000000E+00  0.00000000E+00
  0.00000000E+00  0.00000000E+00  0.00000000E+00
  0.00000000E+00  0.00000000E+00  0.00000000E+00
  0.00000000E+00  0.00000000E+00  0.00000000E+00
  0.00000000E+00  0.00000000E+00  0.00000000E+00
  0.00000000E+00  0.00000000E+00  0.00000000E+00
  0.00000000E+00  0.00000000E+00  0.00000000E+00
  0.00000000E+00  0.00000000E+00  0.00000000E+00
  0.00000000E+00  0.00000000E+00  0.00000000E+00
  0.00000000E+00  0.00000000E+00  0.00000000E+00
  0.00000000E+00  0.00000000E+00  0.00000000E+00
  0.00000000E+00  0.00000000E+00  0.00000000E+00
  0.00000000E+00  0.00000000E+00  0.00000000E+00
  0.00000000E+00  0.00000000E+00  0.00000000E+00
  0.00000000E+00  0.00000000E+00  0.00000000E+00
  0.00000000E+00  0.00000000E+00  0.00000000E+00
  0.00000000E+00  0.00000000E+00  0.00000000E+00
  0.00000000E+00  0.00000000E+00  0.00000000E+00
  0.00000000E+00  0.00000000E+00  0.00000000E+00
  0.00000000E+00  0.00000000E+00  0.00000000E+00
  0.00000000E+00  0.00000000E+00  0.00000000E+00
  0.00000000E+00  0.00000000E+00  0.00000000E+00
  0.00000000E+00  0.00000000E+00  0.00000000E+00
  0.00000000E+00  0.00000000E+00  0.00000000E+00
  0.00000000E+00  0.00000000E+00  0.00000000E+00
  0.00000000E+00  0.00000000E+00  0.00000000E+00
  0.00000000E+00  0.00000000E+00  0.00000000E+00
  0.00000000E+00  0.00000000E+00  0.00000000E+00
  0.00000000E+00  0.00000000E+00  0.00000000E+00
  0.00000000E+00  0.00000000E+00  0.00000000E+00
  0.00000000E+00  0.00000000E+00  0.00000000E+00
  0.00000000E+00  0.00000000E+00  0.00000000E+00
  0.00000000E+00  0.00000000E+00  0.00000000E+00
  0.00000000E+00  0.00000000E+00  0.00000000E+00
  0.00000000E+00  0.00000000E+00  0.00000000E+00
  0.00000000E+00  0.00000000E+00  0.00000000E+00
  0.00000000E+00  0.00000000E+00  0.00000000E+00
  0.00000000E+00  0.00000000E+00  0.00000000E+00
  0.00000000E+00  0.00000000E+00  0.00000000E+00
  0.00000000E+00  0.00000000E+00  0.00000000E+00
  0.00000000E+00  0.00000000E+00  0.00000000E+00
  0.00000000E+00  0.00000000E+00  0.00000000E+00
  0.00000000E+00  0.00000000E+00  0.00000000E+00
  0.00000000E+00  0.00000000E+00  0.00000000E+00
  0.00000000E+00  0.00000000E+00  0.00000000E+00
  0.00000000E+00  0.00000000E+00  0.00000000E+00
  0.00000000E+00  0.00000000E+00  0.00000000E+00
  0.00000000E+00  0.00000000E+00  0.00000000E+00
  0.00000000E+00  0.00000000E+00  0.00000000E+00
  0.00000000E+00  0.00000000E+00  0.00000000E+00
  0.00000000E+00  0.00000000E+00  0.00000000E+00
  0.00000000E+00  0.00000000E+00  0.00000000E+00
  0.00000000E+00  0.00000000E+00  0.00000000E+00
  0.00000000E+00  0.00000000E+00  0.00000000E+00
  0.00000000E+00  0.00000000E+00  0.00000000E+00
  0.00000000E+00  0.00000000E+00  0.00000000E+00
  0.00000000E+00  0.00000000E+00  0.00000000E+00
  0.00000000E+00  0.00000000E+00  0.00000000E+00
  0.00000000E+00  0.00000000E+00  0.00000000E+00
  0.00000000E+00  0.00000000E+00  0.00000000E+00
  0.00000000E+00  0.00000000E+00  0.00000000E+00
  0.00000000E+00  0.00000000E+00  0.00000000E+00
  0.00000000E+00  0.00000000E+00  0.00000000E+00
  0.00000000E+00  0.00000000E+00  0.00000000E+00
  0.00000000E+00  0.00000000E+00  0.00000000E+00
  0.00000000E+00  0.00000000E+00  0.00000000E+00
  0.00000000E+00  0.00000000E+00  0.00000000E+00
  0.00000000E+00  0.00000000E+00  0.00000000E+00
  0.00000000E+00  0.00000000E+00  0.00000000E+00
  0.00000000E+00  0.00000000E+00  0.00000000E+00
  0.00000000E+00  0.00000000E+00  0.00000000E+00
  0.00000000E+00  0.00000000E+00  0.00000000E+00
  0.00000000E+00  0.00000000E+00  0.00000000E+00
  0.00000000E+00  0.00000000E+00  0.00000000E+00
  0.00000000E+00  0.00000000E+00  0.00000000E+00
  0.00000000E+00  0.00000000E+00  0.00000000E+00
  0.00000000E+00  0.00000000E+00  0.00000000E+00
  0.00000000E+00  0.00000000E+00  0.00000000E+00
  0.00000000E+00  0.00000000E+00  0.00000000E+00
  0.00000000E+00  0.00000000E+00  0.00000000E+00
  0.00000000E+00  0.00000000E+00  0.00000000E+00
  0.00000000E+00  0.00000000E+00  0.00000000E+00
  0.00000000E+00  0.00000000E+00  0.00000000E+00
  0.00000000E+00  0.00000000E+00  0.00000000E+00
  0.00000000E+00  0.00000000E+00  0.00000000E+00
  0.00000000E+00  0.00000000E+00  0.00000000E+00
  0.00000000E+00  0.00000000E+00  0.00000000E+00
  0.00000000E+00  0.00000000E+00  0.00000000E+00
  0.00000000E+00  0.00000000E+00  0.00000000E+00
  0.00000000E+00  0.00000000E+00  0.00000000E+00
  0.00000000E+00  0.00000000E+00  0.00000000E+00
  0.00000000E+00  0.00000000E+00  0.00000000E+00
  0.00000000E+00  0.00000000E+00  0.00000000E+00
  0.00000000E+00  0.00000000E+00  0.00000000E+00
  0.00000000E+00  0.00000000E+00  0.00000000E+00
  0.00000000E+00  0.00000000E+00  0.00000000E+00
  0.00000000E+00  0.00000000E+00  0.00000000E+00
  0.00000000E+00  0.00000000E+00  0.00000000E+00
  0.00000000E+00  0.00000000E+00  0.00000000E+00
  0.00000000E+00  0.00000000E+00  0.00000000E+00
  0.00000000E+00  0.00000000E+00  0.00000000E+00
  0.00000000E+00  0.00000000E+00  0.00000000E+00
  0.00000000E+00  0.00000000E+00  0.00000000E+00
  0.00000000E+00  0.00000000E+00  0.00000000E+00
  0.00000000E+00  0.00000000E+00  0.00000000E+00
  0.00000000E+00  0.00000000E+00  0.00000000E+00
  0.00000000E+00  0.00000000E+00  0.00000000E+00
  0.00000000E+00  0.00000000E+00  0.00000000E+00
  0.00000000E+00  0.00000000E+00  0.00000000E+00
  0.00000000E+00  0.00000000E+00  0.00000000E+00
  0.00000000E+00  0.00000000E+00  0.00000000E+00
  0.00000000E+00  0.00000000E+00  0.00000000E+00
  0.00000000E+00  0.00000000E+00  0.00000000E+00
  0.00000000E+00  0.00000000E+00  0.00000000E+00
  0.00000000E+00  0.00000000E+00  0.00000000E+00
  0.00000000E+00  0.00000000E+00  0.00000000E+00
  0.00000000E+00  0.00000000E+00  0.00000000E+00
  0.00000000E+00  0.00000000E+00  0.00000000E+00
  0.00000000E+00  0.00000000E+00  0.00000000E+00
  0.00000000E+00  0.00000000E+00  0.00000000E+00
  0.00000000E+00  0.00000000E+00  0.00000000E+00
  0.00000000E+00  0.00000000E+00  0.00000000E+00
  0.00000000E+00  0.00000000E+00  0.00000000E+00
  0.00000000E+00  0.00000000E+00  0.00000000E+00
  0.00000000E+00  0.00000000E+00  0.00000000E+00
  0.00000000E+00  0.00000000E+00  0.00000000E+00
  0.00000000E+00  0.00000000E+00  0.00000000E+00
  0.00000000E+00  0.00000000E+00  0.00000000E+00
  0.00000000E+00  0.00000000E+00  0.00000000E+00
  0.00000000E+00  0.00000000E+00  0.00000000E+00
  0.00000000E+00  0.00000000E+00  0.00000000E+00
  0.00000000E+00  0.00000000E+00  0.00000000E+00
  0.00000000E+00  0.00000000E+00  0.00000000E+00
  0.00000000E+00  0.00000000E+00  0.00000000E+00
  0.00000000E+00  0.00000000E+00  0.00000000E+00
  0.00000000E+00  0.00000000E+00  0.00000000E+00
  0.00000000E+00  0.00000000E+00  0.00000000E+00
  0.00000000E+00  0.00000000E+00  0.00000000E+00
