KPOINTS from doped, with reciprocal_density = 350/Å⁻³
0
Gamma
14 14 8
