KPOINTS from doped, with reciprocal_density = 765/Å⁻³
0
Gamma
15 15 4
