pymatgen with grid density = 1254 / number of atoms
0
Gamma
7 7 7
