-20.0% N(Distort)=4 ~[0.5,0.5,0.5]      
   1.00000000000000     
    12.5998379999999983    0.0000000000000004    0.0000000000000004
     0.0000000000000004   12.5998379999999983   -0.0000000000000004
    -0.0000000000000004   -0.0000000000000004   12.5998379999999983
   Mg   O 
   109   107
Direct
  0.6668036945184799 -0.0005478392395777  0.0002414574569377
  0.8334540972091762  0.1657512388261906  0.0002718524963030
  0.8332838836611004 -0.0006218097089655  0.1666293822198436
  0.3325335193262924 -0.0004859217302149  0.0001280360676566
  0.4997184407980398  0.1648285651996158 -0.0013758594363613
  0.6672010930911862  0.3321654110170161  0.9991586805803140
  0.8337210167022567  0.4992801172089664  0.0000598432666318
  0.4994994366050178 -0.0004312436262798  0.1662004851982371
  0.6670324369852125  0.1652765052767107  0.1663738889525691
  0.8332747924558744  0.3321882579754681  0.1666055173433557
  0.6666225750810233  0.0003216612836147  0.3332637070084571
  0.8335057226066270  0.1652794306026900  0.3328631614375733
  0.8337000116592036 -0.0004152301597723  0.5003869658007571
 -0.0002969306324599 -0.0005247116006815  0.0002157299843254
  0.1660987882340381  0.1658780988173947 -0.0001981864861869
  0.3323324297266945  0.3320944020286074 -0.0017353085605757
  0.4994684621580873  0.4992058547544997  0.9956878644157250
  0.6666634952337566  0.6663934773314074 -0.0006664072871441
  0.8332791840463144  0.8330739895553697  0.0002733491572056
  0.1659858584308359 -0.0006335986680681  0.1664622177216731
  0.3321646041570573  0.1652305275754971  0.1656755494729787
  0.4998288446672002  0.3261739066109751  0.1588464509438170
  0.6670931288108257  0.4989887687970525  0.1631937237353143
  0.8343121893652927  0.6663339895847193  0.1655581495653007
  0.3324234547125159  0.0004527945770520  0.3327234529331655
  0.4994257165173938  0.1648314152110248  0.3320933328150787
  0.6665712010836760  0.3310312874818732  0.3333070286070342
  0.8366325838321385  0.4990060430126214  0.3327716874632874
  0.4994530859256952  0.0039763832075598  0.5004564072517983
  0.6677850585892816  0.1648706088403748  0.5004489864726760
  0.8409481033772764  0.3262738732864205  0.5000666265240071
  0.6671761353473877  0.0004935289344499  0.6674633361507856
  0.8341941043554465  0.1652677013273846  0.6677052002899709
  0.8334586227987273 -0.0005871321468382  0.8339143520653856
 -0.0002405864269544  0.3322957315903891  0.0001394479551344
  0.1650891690338994  0.4994683630163202 -0.0013814074861469
  0.3324630207864280  0.6669422103964018 -0.0007794060041255
  0.4995421636383829  0.8334685841898486  0.0001070749048034
 -0.0003830450216409  0.1657355552941771  0.1664616346993035
  0.1654752575961131  0.3319547262497605  0.1656731382828900
  0.3265417666990552  0.4995750812632954  0.1589045560412899
  0.4992606185346786  0.6668467146988089  0.1632906507011088
  0.6665553802479293  0.8340906963297101  0.1655998296178256
 -0.0003312803144163 -0.0005669696951362  0.3331235684863940
  0.1655140783260810  0.1652732755041417  0.3328462672496269
  0.3289574454694682  0.3286793497065774  0.3327440173974879
  0.4811831749766343  0.4806030735103949  0.3008442125482986
  0.6724109256783602  0.6722267302951817  0.3274584580233778
  0.8343076485092806  0.8340908383704683  0.3333410054706392
  0.1650999301004130  0.0010422974967025  0.5002149929545131
  0.3323916402571114  0.1663828360933289  0.5001612995634686
  0.4997259842058818  0.3294876752782049  0.5001712371554867
  0.6988694763701405  0.4808595196262667  0.5187104182784981
  0.8366096368256265  0.6668882607042911  0.5006404082816519
  0.3323467174695797  0.0014094785482478  0.6675697325165525
  0.4997380475935893  0.1663996366556875  0.6675105113025894
  0.6671426616854756  0.3287441224614153  0.6709075272584553
  0.8409609049949188  0.4996029778152576  0.6733337623057433
  0.4997302282008688  0.0010541395928728  0.8348251472251594
  0.6670734347580662  0.1653103926149148  0.8343697525068504
  0.8342347758878642  0.3319710753480912  0.8344032716204084
 -0.0002933228577484  0.6665801129590971  0.0002127787145404
  0.1660131980195684  0.8332057237503068  0.0002892688752553
 -0.0001861089819676  0.4992742033413970  0.1661859695874880
  0.1655442879409230  0.6667616901796378  0.1663897122888660
  0.3324488769577789  0.8330245008645621  0.1666408843057507
  0.0006980915396524  0.3321874973195654  0.3327159296928073
  0.1651510945174775  0.4991870422842110  0.3320881935076856
  0.3313654637603273  0.6663196885271869  0.3333194190979094
  0.4992221742776882  0.8363706655024581  0.3328331700811879
  0.0012449304008129  0.1648678746692434  0.5001890178183220
  0.1665894633653978  0.3321692604530938  0.5001605478348244
  0.3297606989579949  0.4994663220020594  0.5001698733436191
  0.4810922810908591  0.6988638348358002  0.5190364761450611
  0.6670819644042049  0.8364336683567036  0.5006650972888764
 -0.0002355345468049 -0.0004699973874690  0.6673792452287429
  0.1665451203778910  0.1663343798930018  0.6671575512995102
  0.3331470764944726  0.3329324098418050  0.6667493041569075
  0.4997147344075730  0.4994714102616382  0.6701805789560862
  0.6665795110556536  0.6663406471397119  0.6686089608241059
  0.8332714525070412  0.8330576377162674  0.6674713582357291
  0.1661027473006638 -0.0001293728885524  0.8338085096930721
  0.3327463892102652  0.1663459128533569  0.8333277580301528
  0.4997310811432085  0.3321653839807177  0.8333013869958310
  0.6678178211440661  0.4991928811438892  0.8347655006251448
  0.8335332829470713  0.6667916444756891  0.8343643991549201
 -0.0003591596835446  0.8330450984911206  0.1666363207177979
  0.0005734735480147  0.6663953845424935  0.3332554309576320
  0.1655566463028957  0.8332679844880677  0.3329058487121883
  0.0041910880956890  0.4992409140025006  0.5003983796114936
  0.1651419252001074  0.6675445120675140  0.5004332435506739
  0.3265304099884782  0.8407859872354871  0.5000805702059842
  0.0015871565113847  0.3321127898574369  0.6675342876638399
  0.1665923895401154  0.4995080943355261  0.6674817361985863
  0.3289731715785428  0.6668665866171972  0.6709380794585428
  0.4998452754963694  0.8408454084633699  0.6734543500429410
  0.0000920383306071  0.1658922339819363  0.8337857079480947
  0.1665594096637796  0.3325256280386837  0.8333166343899859
  0.3323791627327642  0.4995053540506201  0.8332944775805760
  0.4994756831905260  0.6675499365715396  0.8348213794614943
  0.6670368492622645  0.8333095718674367  0.8343892409653839
 -0.0001661132335563  0.8334610646941806  0.5003885202112613
  0.0006947050615936  0.6669609851905608  0.6674344418246494
  0.1655116176588969  0.8339683141041203  0.6677036340577278
  0.0012593162867481  0.4994865476543067  0.8347816549904284
  0.1655570183289466  0.6668425487047818  0.8343430277508223
  0.3322376859181974  0.8339660206538096  0.8344147007755440
 -0.0003726732255637  0.8332248175560228  0.8339173836591280
  0.5560469646684133  0.5561393584556058  0.4436049255897438
  0.8328210397049458  0.1661696488981849  0.1670761976776835
 -0.0006323552901209  0.3327643967646208  0.1668090345898831
 -0.0004712328537425  0.1659758974930696  0.3334539615188646
  0.4996401160291336  0.1649813837522849  0.1655786958968936
  0.6654505915795880  0.3335771052792703  0.1672159907507081
  0.8316400065725138  0.4994527157486851  0.1682273365395185
 -0.0005825455165456  0.6659653671929271  0.1670873815329310
  0.6663489127204872  0.1665284018198817  0.3335374100569680
  0.8326207129326652  0.3336137360985676  0.3344300038066995
  0.0007814842345274  0.4993533619899770  0.3330055482049430
  0.8342907016477504  0.1650365488567100  0.5002377788901854
  0.0022789257276171  0.3318248695630621  0.5000986187529077
  0.0001611883280225  0.1661576179362708  0.6667972640169540
  0.1663120585083498  0.1660825602784980  0.1665510317073638
  0.3335744511298273  0.3333007252058988  0.1659138795684200
  0.4987916487819053  0.4984958738681595  0.1553894293288797
  0.6654298779629584  0.6651625256944749  0.1669925690783129
  0.8324503803224209  0.8322193672761440  0.1674488440810717
 -0.0004999133201965 -0.0007639300906561  0.1669554681919574
  0.3326213119189513  0.1658470925570255  0.3329746911367409
  0.4984038137705250  0.3297572842751800  0.3307799608198443
  0.6594420006458080  0.4996673167323259  0.3403232980143954
  0.8328686751871673  0.6651776500654661  0.3344690147935481
 -0.0005776849616873  0.8325559656397458  0.3337126741920479
  0.5001217339715405  0.1672308378745175  0.4997719870005206
  0.6690789276902811  0.3298865949661285  0.5014861537058151
  0.8443930451772289  0.4985691443191007  0.5010707048692458
  0.0007747996566411  0.6666303908142124  0.5002495477777871
  0.6669171127706252  0.1658880651151147  0.6672369475575727
  0.8339367217858444  0.3333551569842459  0.6663111763425905
  0.0023090026625073  0.4995472979623475  0.6678112558982593
  0.8333449642693542  0.1661087119216259  0.8335510902609425
  0.0001757778375645  0.3328720599176189  0.8335085362972334
 -0.0002909094088872  0.1660807692311143  0.0001956870547994
  0.1652699866940548  0.4994027864979245  0.1655778389199652
  0.3338696647978213  0.6651800642652747  0.1672150220391953
  0.4997231599470758  0.8314202089692905  0.1682520023668103
  0.6662070789596688 -0.0008078518970379  0.1670986082458614
  0.1661183119562641  0.3323938549493735  0.3329820395517830
  0.3302419004372678  0.4981237054855432  0.3307650014670134
  0.4999122703729119  0.6594833407621777  0.3402675232975562
  0.6654084575410675  0.8326645113258664  0.3344944749774286
  0.8327982207594065 -0.0008126536474343  0.3336980616207048
  0.1668067379378441  0.1666104104668749  0.4999382869219726
  0.3341402728153712  0.3338539927656606  0.4992300104437187
  0.6594705478284697  0.6593834348277186  0.4999899327443494
  0.8316506389053601  0.8314246408225646  0.5001880554401453
  0.9994935077404455 -0.0007637540961776  0.5002035071614462
  0.3334348744113736  0.1672468584199514  0.6664699118052253
  0.5006648921835217  0.3338708643648437  0.6657788799593470
  0.6690969296959159  0.4981603044291931  0.6697080404700966
  0.8326555136620232  0.6652267388076265  0.6660238510403612
 -0.0006162499892687  0.8328429928002140  0.6668799646912089
  0.4999689920302232  0.1666177954082423  0.8330754242768348
  0.6669371203784529  0.3324136572360904  0.8337540357878284
  0.8343292244462810  0.4994304162525309  0.8346068384120591
 -0.0004341582775625  0.6662318213612899  0.8336422167434894
  0.6664664883561968  0.1659913394738409  0.0003400466815363
  0.8330977063107662  0.3327785098165868  0.0005017373447451
 -0.0005086033871350  0.4994830088959711  0.0004021201096709
  0.1664226291214067  0.8325473840247974  0.1670944281493034
  0.3330008086146995 -0.0008845036869878  0.1668032768858271
  0.1667984184442989  0.6660807714663275  0.3335535523511724
  0.3338311553554000  0.8324192286836846  0.3344585513275036
  0.4995907649647202  0.0005255745932909  0.3330277393619309
  0.1675033599435109  0.4998759794827387  0.4997390578143917
  0.3302015717432430  0.6688399672534980  0.5015201126521673
  0.4987709013663806  0.8443017233919862  0.5011859893123249
  0.6668543442806403  0.0005257995570854  0.5002672512998380
  0.1674699943026726  0.3332064177925357  0.6664384775344131
  0.3341186418923625  0.5003955325767669  0.6657588065991954
  0.4984148353554242  0.6688556936857492  0.6698789549312646
  0.6654527227031842  0.8324278651525338  0.6660598361249067
  0.8330794913234724 -0.0008362398376594  0.6668686049399279
  0.1665885534605104  0.1663822084933992  0.8332933232703242
  0.3334356148522543  0.3332019713581348  0.8323940259666727
  0.5001231964955251  0.4998773115918281  0.8324191724219837
  0.6663728205761201  0.6661134099429886  0.8331438771688399
  0.8328215753459195  0.8325765476039486  0.8334797803706405
 -0.0002895619163161 -0.0005095153879894  0.8335910078713853
  0.3330738394843270  0.1661330177547441 -0.0002973795113218
  0.4997813925100260  0.3317821610019216 -0.0024565144869530
  0.6668902991267275  0.4993433688004771 -0.0009116254158259
  0.8328278236928989  0.6659834377870507  0.0004704072462951
 -0.0004844358996960  0.8327358620990672  0.0004135656609514
  0.1662126968539490 -0.0007064676037143  0.3334663511865997
  0.1652811328538629  0.8340735838924545  0.5002631621526706
  0.3320346893364185  0.0021088536468352  0.5001202195570462
  0.1661384280474390  0.6666740064465135  0.6672183366450879
  0.3336103298998195  0.8337063064413786  0.6663352124421993
  0.4997921486382603  0.0021268812904328  0.6678747013690213
  0.1668264316076483  0.4997570526899091  0.8330394280438012
  0.3326748864957684  0.6666736457534314  0.8337959723646219
  0.4996839089900478  0.8340935553393517  0.8346686070083651
  0.6664652240441369 -0.0006583176292124  0.8336709392002228
  0.1663578816020664  0.3328443984033473 -0.0002933599572626
  0.3320477767947234  0.4995186413476961  0.9975600993835197
  0.4996416218900592  0.6666172709829667 -0.0008665884351199
  0.6662219917841589  0.8325910356967922  0.0004898300944651
  0.8329652458358948 -0.0007363664032475  0.0003989100732866
  0.1663970879333445 -0.0000358359132275  0.6668358462360571
  0.1663443136848063  0.8331167069479573  0.8335697041032455
  0.3331129025110070 -0.0000434150965466  0.8335101894973553
  0.1662513383723820  0.6662087317971686  0.0003440598558804
  0.3330430632002221  0.8328407290890123  0.0005147024105508
  0.4997107004900228 -0.0007596920584545  0.0004153979806748
  0.1662991189566082 -0.0005341661176369  0.0002058148765795
 
  0.00000000E+00  0.00000000E+00  0.00000000E+00
  0.00000000E+00  0.00000000E+00  0.00000000E+00
  0.00000000E+00  0.00000000E+00  0.00000000E+00
  0.00000000E+00  0.00000000E+00  0.00000000E+00
  0.00000000E+00  0.00000000E+00  0.00000000E+00
  0.00000000E+00  0.00000000E+00  0.00000000E+00
  0.00000000E+00  0.00000000E+00  0.00000000E+00
  0.00000000E+00  0.00000000E+00  0.00000000E+00
  0.00000000E+00  0.00000000E+00  0.00000000E+00
  0.00000000E+00  0.00000000E+00  0.00000000E+00
  0.00000000E+00  0.00000000E+00  0.00000000E+00
  0.00000000E+00  0.00000000E+00  0.00000000E+00
  0.00000000E+00  0.00000000E+00  0.00000000E+00
  0.00000000E+00  0.00000000E+00  0.00000000E+00
  0.00000000E+00  0.00000000E+00  0.00000000E+00
  0.00000000E+00  0.00000000E+00  0.00000000E+00
  0.00000000E+00  0.00000000E+00  0.00000000E+00
  0.00000000E+00  0.00000000E+00  0.00000000E+00
  0.00000000E+00  0.00000000E+00  0.00000000E+00
  0.00000000E+00  0.00000000E+00  0.00000000E+00
  0.00000000E+00  0.00000000E+00  0.00000000E+00
  0.00000000E+00  0.00000000E+00  0.00000000E+00
  0.00000000E+00  0.00000000E+00  0.00000000E+00
  0.00000000E+00  0.00000000E+00  0.00000000E+00
  0.00000000E+00  0.00000000E+00  0.00000000E+00
  0.00000000E+00  0.00000000E+00  0.00000000E+00
  0.00000000E+00  0.00000000E+00  0.00000000E+00
  0.00000000E+00  0.00000000E+00  0.00000000E+00
  0.00000000E+00  0.00000000E+00  0.00000000E+00
  0.00000000E+00  0.00000000E+00  0.00000000E+00
  0.00000000E+00  0.00000000E+00  0.00000000E+00
  0.00000000E+00  0.00000000E+00  0.00000000E+00
  0.00000000E+00  0.00000000E+00  0.00000000E+00
  0.00000000E+00  0.00000000E+00  0.00000000E+00
  0.00000000E+00  0.00000000E+00  0.00000000E+00
  0.00000000E+00  0.00000000E+00  0.00000000E+00
  0.00000000E+00  0.00000000E+00  0.00000000E+00
  0.00000000E+00  0.00000000E+00  0.00000000E+00
  0.00000000E+00  0.00000000E+00  0.00000000E+00
  0.00000000E+00  0.00000000E+00  0.00000000E+00
  0.00000000E+00  0.00000000E+00  0.00000000E+00
  0.00000000E+00  0.00000000E+00  0.00000000E+00
  0.00000000E+00  0.00000000E+00  0.00000000E+00
  0.00000000E+00  0.00000000E+00  0.00000000E+00
  0.00000000E+00  0.00000000E+00  0.00000000E+00
  0.00000000E+00  0.00000000E+00  0.00000000E+00
  0.00000000E+00  0.00000000E+00  0.00000000E+00
  0.00000000E+00  0.00000000E+00  0.00000000E+00
  0.00000000E+00  0.00000000E+00  0.00000000E+00
  0.00000000E+00  0.00000000E+00  0.00000000E+00
  0.00000000E+00  0.00000000E+00  0.00000000E+00
  0.00000000E+00  0.00000000E+00  0.00000000E+00
  0.00000000E+00  0.00000000E+00  0.00000000E+00
  0.00000000E+00  0.00000000E+00  0.00000000E+00
  0.00000000E+00  0.00000000E+00  0.00000000E+00
  0.00000000E+00  0.00000000E+00  0.00000000E+00
  0.00000000E+00  0.00000000E+00  0.00000000E+00
  0.00000000E+00  0.00000000E+00  0.00000000E+00
  0.00000000E+00  0.00000000E+00  0.00000000E+00
  0.00000000E+00  0.00000000E+00  0.00000000E+00
  0.00000000E+00  0.00000000E+00  0.00000000E+00
  0.00000000E+00  0.00000000E+00  0.00000000E+00
  0.00000000E+00  0.00000000E+00  0.00000000E+00
  0.00000000E+00  0.00000000E+00  0.00000000E+00
  0.00000000E+00  0.00000000E+00  0.00000000E+00
  0.00000000E+00  0.00000000E+00  0.00000000E+00
  0.00000000E+00  0.00000000E+00  0.00000000E+00
  0.00000000E+00  0.00000000E+00  0.00000000E+00
  0.00000000E+00  0.00000000E+00  0.00000000E+00
  0.00000000E+00  0.00000000E+00  0.00000000E+00
  0.00000000E+00  0.00000000E+00  0.00000000E+00
  0.00000000E+00  0.00000000E+00  0.00000000E+00
  0.00000000E+00  0.00000000E+00  0.00000000E+00
  0.00000000E+00  0.00000000E+00  0.00000000E+00
  0.00000000E+00  0.00000000E+00  0.00000000E+00
  0.00000000E+00  0.00000000E+00  0.00000000E+00
  0.00000000E+00  0.00000000E+00  0.00000000E+00
  0.00000000E+00  0.00000000E+00  0.00000000E+00
  0.00000000E+00  0.00000000E+00  0.00000000E+00
  0.00000000E+00  0.00000000E+00  0.00000000E+00
  0.00000000E+00  0.00000000E+00  0.00000000E+00
  0.00000000E+00  0.00000000E+00  0.00000000E+00
  0.00000000E+00  0.00000000E+00  0.00000000E+00
  0.00000000E+00  0.00000000E+00  0.00000000E+00
  0.00000000E+00  0.00000000E+00  0.00000000E+00
  0.00000000E+00  0.00000000E+00  0.00000000E+00
  0.00000000E+00  0.00000000E+00  0.00000000E+00
  0.00000000E+00  0.00000000E+00  0.00000000E+00
  0.00000000E+00  0.00000000E+00  0.00000000E+00
  0.00000000E+00  0.00000000E+00  0.00000000E+00
  0.00000000E+00  0.00000000E+00  0.00000000E+00
  0.00000000E+00  0.00000000E+00  0.00000000E+00
  0.00000000E+00  0.00000000E+00  0.00000000E+00
  0.00000000E+00  0.00000000E+00  0.00000000E+00
  0.00000000E+00  0.00000000E+00  0.00000000E+00
  0.00000000E+00  0.00000000E+00  0.00000000E+00
  0.00000000E+00  0.00000000E+00  0.00000000E+00
  0.00000000E+00  0.00000000E+00  0.00000000E+00
  0.00000000E+00  0.00000000E+00  0.00000000E+00
  0.00000000E+00  0.00000000E+00  0.00000000E+00
  0.00000000E+00  0.00000000E+00  0.00000000E+00
  0.00000000E+00  0.00000000E+00  0.00000000E+00
  0.00000000E+00  0.00000000E+00  0.00000000E+00
  0.00000000E+00  0.00000000E+00  0.00000000E+00
  0.00000000E+00  0.00000000E+00  0.00000000E+00
  0.00000000E+00  0.00000000E+00  0.00000000E+00
  0.00000000E+00  0.00000000E+00  0.00000000E+00
  0.00000000E+00  0.00000000E+00  0.00000000E+00
  0.00000000E+00  0.00000000E+00  0.00000000E+00
  0.00000000E+00  0.00000000E+00  0.00000000E+00
  0.00000000E+00  0.00000000E+00  0.00000000E+00
  0.00000000E+00  0.00000000E+00  0.00000000E+00
  0.00000000E+00  0.00000000E+00  0.00000000E+00
  0.00000000E+00  0.00000000E+00  0.00000000E+00
  0.00000000E+00  0.00000000E+00  0.00000000E+00
  0.00000000E+00  0.00000000E+00  0.00000000E+00
  0.00000000E+00  0.00000000E+00  0.00000000E+00
  0.00000000E+00  0.00000000E+00  0.00000000E+00
  0.00000000E+00  0.00000000E+00  0.00000000E+00
  0.00000000E+00  0.00000000E+00  0.00000000E+00
  0.00000000E+00  0.00000000E+00  0.00000000E+00
  0.00000000E+00  0.00000000E+00  0.00000000E+00
  0.00000000E+00  0.00000000E+00  0.00000000E+00
  0.00000000E+00  0.00000000E+00  0.00000000E+00
  0.00000000E+00  0.00000000E+00  0.00000000E+00
  0.00000000E+00  0.00000000E+00  0.00000000E+00
  0.00000000E+00  0.00000000E+00  0.00000000E+00
  0.00000000E+00  0.00000000E+00  0.00000000E+00
  0.00000000E+00  0.00000000E+00  0.00000000E+00
  0.00000000E+00  0.00000000E+00  0.00000000E+00
  0.00000000E+00  0.00000000E+00  0.00000000E+00
  0.00000000E+00  0.00000000E+00  0.00000000E+00
  0.00000000E+00  0.00000000E+00  0.00000000E+00
  0.00000000E+00  0.00000000E+00  0.00000000E+00
  0.00000000E+00  0.00000000E+00  0.00000000E+00
  0.00000000E+00  0.00000000E+00  0.00000000E+00
  0.00000000E+00  0.00000000E+00  0.00000000E+00
  0.00000000E+00  0.00000000E+00  0.00000000E+00
  0.00000000E+00  0.00000000E+00  0.00000000E+00
  0.00000000E+00  0.00000000E+00  0.00000000E+00
  0.00000000E+00  0.00000000E+00  0.00000000E+00
  0.00000000E+00  0.00000000E+00  0.00000000E+00
  0.00000000E+00  0.00000000E+00  0.00000000E+00
  0.00000000E+00  0.00000000E+00  0.00000000E+00
  0.00000000E+00  0.00000000E+00  0.00000000E+00
  0.00000000E+00  0.00000000E+00  0.00000000E+00
  0.00000000E+00  0.00000000E+00  0.00000000E+00
  0.00000000E+00  0.00000000E+00  0.00000000E+00
  0.00000000E+00  0.00000000E+00  0.00000000E+00
  0.00000000E+00  0.00000000E+00  0.00000000E+00
  0.00000000E+00  0.00000000E+00  0.00000000E+00
  0.00000000E+00  0.00000000E+00  0.00000000E+00
  0.00000000E+00  0.00000000E+00  0.00000000E+00
  0.00000000E+00  0.00000000E+00  0.00000000E+00
  0.00000000E+00  0.00000000E+00  0.00000000E+00
  0.00000000E+00  0.00000000E+00  0.00000000E+00
  0.00000000E+00  0.00000000E+00  0.00000000E+00
  0.00000000E+00  0.00000000E+00  0.00000000E+00
  0.00000000E+00  0.00000000E+00  0.00000000E+00
  0.00000000E+00  0.00000000E+00  0.00000000E+00
  0.00000000E+00  0.00000000E+00  0.00000000E+00
  0.00000000E+00  0.00000000E+00  0.00000000E+00
  0.00000000E+00  0.00000000E+00  0.00000000E+00
  0.00000000E+00  0.00000000E+00  0.00000000E+00
  0.00000000E+00  0.00000000E+00  0.00000000E+00
  0.00000000E+00  0.00000000E+00  0.00000000E+00
  0.00000000E+00  0.00000000E+00  0.00000000E+00
  0.00000000E+00  0.00000000E+00  0.00000000E+00
  0.00000000E+00  0.00000000E+00  0.00000000E+00
  0.00000000E+00  0.00000000E+00  0.00000000E+00
  0.00000000E+00  0.00000000E+00  0.00000000E+00
  0.00000000E+00  0.00000000E+00  0.00000000E+00
  0.00000000E+00  0.00000000E+00  0.00000000E+00
  0.00000000E+00  0.00000000E+00  0.00000000E+00
  0.00000000E+00  0.00000000E+00  0.00000000E+00
  0.00000000E+00  0.00000000E+00  0.00000000E+00
  0.00000000E+00  0.00000000E+00  0.00000000E+00
  0.00000000E+00  0.00000000E+00  0.00000000E+00
  0.00000000E+00  0.00000000E+00  0.00000000E+00
  0.00000000E+00  0.00000000E+00  0.00000000E+00
  0.00000000E+00  0.00000000E+00  0.00000000E+00
  0.00000000E+00  0.00000000E+00  0.00000000E+00
  0.00000000E+00  0.00000000E+00  0.00000000E+00
  0.00000000E+00  0.00000000E+00  0.00000000E+00
  0.00000000E+00  0.00000000E+00  0.00000000E+00
  0.00000000E+00  0.00000000E+00  0.00000000E+00
  0.00000000E+00  0.00000000E+00  0.00000000E+00
  0.00000000E+00  0.00000000E+00  0.00000000E+00
  0.00000000E+00  0.00000000E+00  0.00000000E+00
  0.00000000E+00  0.00000000E+00  0.00000000E+00
  0.00000000E+00  0.00000000E+00  0.00000000E+00
  0.00000000E+00  0.00000000E+00  0.00000000E+00
  0.00000000E+00  0.00000000E+00  0.00000000E+00
  0.00000000E+00  0.00000000E+00  0.00000000E+00
  0.00000000E+00  0.00000000E+00  0.00000000E+00
  0.00000000E+00  0.00000000E+00  0.00000000E+00
  0.00000000E+00  0.00000000E+00  0.00000000E+00
  0.00000000E+00  0.00000000E+00  0.00000000E+00
  0.00000000E+00  0.00000000E+00  0.00000000E+00
  0.00000000E+00  0.00000000E+00  0.00000000E+00
  0.00000000E+00  0.00000000E+00  0.00000000E+00
  0.00000000E+00  0.00000000E+00  0.00000000E+00
  0.00000000E+00  0.00000000E+00  0.00000000E+00
  0.00000000E+00  0.00000000E+00  0.00000000E+00
  0.00000000E+00  0.00000000E+00  0.00000000E+00
  0.00000000E+00  0.00000000E+00  0.00000000E+00
  0.00000000E+00  0.00000000E+00  0.00000000E+00
  0.00000000E+00  0.00000000E+00  0.00000000E+00
  0.00000000E+00  0.00000000E+00  0.00000000E+00
  0.00000000E+00  0.00000000E+00  0.00000000E+00
  0.00000000E+00  0.00000000E+00  0.00000000E+00
  0.00000000E+00  0.00000000E+00  0.00000000E+00
  0.00000000E+00  0.00000000E+00  0.00000000E+00
  0.00000000E+00  0.00000000E+00  0.00000000E+00
  0.00000000E+00  0.00000000E+00  0.00000000E+00
  0.00000000E+00  0.00000000E+00  0.00000000E+00
