60.0% N(Distort)=3 ~[0.5,0.5,0.5]       
   1.00000000000000     
    12.5998379999999983    0.0000000000000004    0.0000000000000004
     0.0000000000000004   12.5998379999999983   -0.0000000000000004
    -0.0000000000000004   -0.0000000000000004   12.5998379999999983
   Mg   O 
   109   107
Direct
  0.6679550999602771 -0.0001402776268713 -0.0002930481065606
  0.8344737215011959  0.1661761849336091 -0.0004529509770719
  0.8343681763189191 -0.0004707585589597  0.1660436186469202
  0.3336797219084365 -0.0000579010688057 -0.0003628083518536
  0.5009398795134541  0.1658881772690548 -0.0002724450177188
  0.6680901962607332  0.3324060190126025  0.0005966426987388
  0.8354377095255867  0.4999383102707582  0.0011905874268751
  0.5007642609010510 -0.0016677500185996  0.1650184132407606
  0.6682764376097575  0.1653781849724284  0.1653797206840051
  0.8349987044898201  0.3325506324752660  0.1654515594128790
  0.6681606592710704 -0.0020091289139331  0.3322798863370960
  0.8350262590696501  0.1653824133660613  0.3321414700606177
  0.8354325916607908 -0.0016550466362134  0.4996330458199099
  0.0007752448736102 -0.0000519743551643 -0.0003708931681261
  0.1671579108255262  0.1663726886329786 -0.0004183843206871
  0.3337982975737308  0.3329975668454306  0.0005362347183310
  0.5010065472791980  0.5001213917764152  0.0040328603477510
  0.6681428805388776  0.6672605288651791  0.0015575495749700
  0.8343811480297220  0.8335235929004153  0.0000560821146298
  0.1670283097852219  0.0000283387431918  0.1659234580623011
  0.3334435005865721  0.1661263671482734  0.1654510491445547
  0.5010506825305564  0.3317690181881962  0.1649566984272074
  0.6681401901602622  0.4998570495373412  0.1664947868662711
  0.8339035840902720  0.6668875649651891  0.1665378359052904
  0.3332356387014051 -0.0010619865240867  0.3323779793633040
  0.5006264092568082  0.1585784915934229  0.3263393663928470
  0.6716485375419384  0.3324654384756364  0.3288004516942930
  0.8339358254363013  0.4998974216641847  0.3323416283022800
  0.5010071912140234 -0.0045030886202903  0.4994335272513913
  0.6740751210587874  0.1585665541656669  0.4998042187309918
  0.8354751659940975  0.3317451787746900  0.4993759583716844
  0.6680921030410754 -0.0011193814895406  0.6671406318311826
  0.8350022831250485  0.1661040026034260  0.6669529672895913
  0.8344739570593056  0.0000118066508143  0.8334001316487026
  0.0007772261601386  0.3328629789490998 -0.0003730409008601
  0.1667137939411165  0.5001441039206460 -0.0001928631357053
  0.3332511197989622  0.6672260797721643  0.0006908915094170
  0.5007708513720279  0.8345345709915089  0.0012452227915372
  0.0008471384611046  0.1661852495603822  0.1659376034651100
  0.1669317504854624  0.3326484301599082  0.1654752299846992
  0.3326436908217414  0.5001866593361369  0.1650344469111859
  0.5007381331291689  0.6672229042795782  0.1665438195763893
  0.6677176038968704  0.8330414305668311  0.1665428382103353
  0.0007265769991323 -0.0001294986052505  0.3324686057276560
  0.1671853823623356  0.1663416139622244  0.3323743617284036
  0.3338747628305155  0.3330337877299248  0.3312225128127508
  0.5007379965851018  0.4998397331546618  0.3294472170506279
  0.6673158287069847  0.6664163987164968  0.3331493478605989
  0.8339195680669204  0.8330415247819457  0.3327130830484203
  0.1667226467187931 -0.0001589122056716  0.4994812384555053
  0.3333426432391799  0.1630119100776743  0.4992138761572703
  0.5197409450200099  0.3006525733671369  0.4806631256901984
  0.6710451598728432  0.4998437695681522  0.4997187758754699
  0.8339241411448841  0.6672378922831089  0.4997062798676073
  0.3338124335977019 -0.0009207746517502  0.6666312482072789
  0.5012183699181935  0.1629801355113445  0.6670992482400356
  0.6692031368295225  0.3330224805803049  0.6665091000748187
  0.8354738819460253  0.5001487698972028  0.6677623023034627
  0.5009810635282511 -0.0001857893936590  0.8336990221743150
  0.6680521611495528  0.1663320532102023  0.8331962111530841
  0.8350100405328015  0.3326163839445794  0.8334447940178097
  0.0007104069816104  0.6671285341796188 -0.0002776690884240
  0.1670233108274219  0.8336705648472867 -0.0004070940817571
 -0.0007636115894943  0.4999429016427852  0.1650546054756480
  0.1662724831339971  0.6674216220535336  0.1654770958856466
  0.3333936399830726  0.8340861452752950  0.1655290920252860
 -0.0001856919520242  0.3324550606830907  0.3323981300369651
  0.1595297480785849  0.4998154405974065  0.3265156540222623
  0.3333697800496144  0.6707055462531812  0.3289282760090049
  0.5007277505605423  0.8330747583534621  0.3323638118378534
  0.0006818102734658  0.1658998002457614  0.4994524917966193
  0.1638914165930241  0.3325036523523239  0.4992026116012422
  0.3017634924230352  0.5188540473113219  0.4810002919731160
  0.5007141255281843  0.6701792301593041  0.4997498931110883
  0.6681283051436945  0.8330368971479912  0.4996957007374203
  0.0007703069734769 -0.0000411396642161  0.6667299150185383
  0.1661114118806016  0.1652728726112957  0.6665112750308069
  0.3278116660906182  0.3269559142681359  0.6726338703721088
  0.5194861758569986  0.5187984811274080  0.6986966236132868
  0.6715745940685540  0.6706747045703744  0.6671004593834463
  0.8349469323687857  0.8340761788639172  0.6670248548550928
  0.1671582845964718  0.0000339217102844  0.8332379950467748
  0.3338758628124402  0.1652468307562952  0.8343507800952888
  0.5012138720695002  0.3324874148579597  0.8365378975468120
  0.6740102092347282  0.4997725974523397  0.8408694726340731
  0.8350032736669728  0.6674057662959384  0.8341501997525226
  0.0003676592721192  0.8335381138353820  0.1660679011031104
 -0.0011009578419072  0.6673072631319724  0.3323131410131167
  0.1662478563081118  0.8341524059289094  0.3322098332124787
 -0.0035585700660242  0.5001757379917473  0.4994336842127509
  0.1594954418776873  0.6731919669189315  0.4998338556952598
  0.3326230530723954  0.8346449164262337  0.4994326641594032
 -0.0000774129285416  0.3329964445243688  0.6665968641135219
  0.1638485539034558  0.5003920972343674  0.6670767235365482
  0.3338839150548693  0.6684267919539776  0.6665798218300787
  0.5010570025480278  0.8346037991244785  0.6678372876763615
  0.0008480738881734  0.1663641361266313  0.8332217534796873
  0.1660910758670754  0.3330948693401255  0.8343264215581433
  0.3333065458216503  0.5003970235953188  0.8366242697524329
  0.5005990570187486  0.6731476439320183  0.8409696656701937
  0.6682640310867479  0.8341387039304247  0.8341855561208775
 -0.0007744201244993  0.8345430255380930  0.4996816237716325
 -0.0002112345727760  0.6672190537472817  0.6671744982726686
  0.1669251080071864  0.8341704603395697  0.6669900239876483
  0.0006600730125884  0.5001472991621799  0.8336826672077033
  0.1671723105478231  0.6672348075361328  0.8332694867119619
  0.3334578013180532  0.8341629683842178  0.8335095659403641
  0.0008242015297054  0.8336621251923105  0.8334027209675576
  0.4437324193967229  0.4425552433103827  0.5566691135503811
  0.8341759189404850  0.1662833797998970  0.1662371225599297
  0.0009706557882665  0.3331511912489132  0.1661923879429664
  0.0011498157405275  0.1665552058150601  0.3329605706982579
  0.5008129868425125  0.1652507667998066  0.1651381890935316
  0.6678617661555758  0.3326371006715502  0.1659881933655764
  0.8337210151633097  0.4996256833343051  0.1667366975780020
  0.0003429048035011  0.6665538147687230  0.1663401244780211
  0.6668700218476277  0.1656174381827229  0.3335780465070567
  0.8344591062062892  0.3326618711049033  0.3326082591415193
 -0.0017139705266515  0.4998335971981759  0.3320697789178798
  0.8352858158494205  0.1652643324708252  0.4996287459625737
 -0.0001507470529600  0.3327448558712236  0.4996123027828166
  0.0011175229070756  0.1668323523567401  0.6661694558123349
  0.1676810943654040  0.1668458936942742  0.1663607771678308
  0.3341105428488527  0.3332746581146599  0.1666737289991692
  0.5003451203643918  0.4993977422267257  0.1673417443135017
  0.6670503139816841  0.6661222587055494  0.1673974096848917
  0.8338983680515010  0.8330327773281694  0.1665434813959472
  0.0008323979758602 -0.0000373463887759  0.1662022160341813
  0.3350161480459259  0.1669440699876552  0.3338211546989654
  0.5020003417791525  0.3303494221427480  0.3299851692215139
  0.6663408358605741  0.4988348141896458  0.3341577994448320
  0.8331008594842464  0.6661501678581674  0.3334238317909388
  0.0003291822883382  0.8332622188256202  0.3330555652237709
  0.5016179697174514  0.1553108824028745  0.4987978408841761
  0.6704292740820682  0.3303582630552273  0.4984106914544564
  0.8331669740650468  0.4994366892759297  0.5001242401565972
 -0.0017287978212956  0.6675442170123396  0.4998150366286386
  0.6665915042102042  0.1669308137490705  0.6654035157672076
  0.8337800131633438  0.3332342404661047  0.6663024259472828
  0.9998275267858904  0.4999841603920578  0.6668127108433056
  0.8341002543946082  0.1668235604320595  0.8327053617138707
  0.0011070327436694  0.3334092936079763  0.8327360751906929
  0.0009993401916622  0.1666744284924893 -0.0005992561131041
  0.1661402319560571  0.4999688286194917  0.1652254716394557
  0.3335208949161620  0.6669365893959328  0.1660960368043692
  0.5004774578935082  0.8328021769600815  0.1667746428109488
  0.6674221357339605 -0.0005475871380788  0.1662985361546018
  0.1678313209618243  0.3341634056672393  0.3338582559021482
  0.3312821233126348  0.5011705760022587  0.3301432386195046
  0.4997736973066850  0.6654323130146256  0.3341801519046061
  0.6670541991106378  0.8321729537856265  0.3334181159769677
  0.8341579848583458 -0.0005514950173729  0.3330181920830164
  0.1688166376069161  0.1679550798088917  0.4996906761480475
  0.3405725364210866  0.3396456080615566  0.5000048648303294
  0.6663337489854355  0.6654106228088187  0.5007234879599524
  0.8337033665239033  0.8328027967944217  0.4999638024536790
  0.0010239895018608  0.0001521156100335  0.4996768958029042
  0.3350036240875215  0.1666802803980911  0.6654244557882343
  0.5003856458158101  0.3396490160478873  0.6598407416384461
  0.6703223557946338  0.5011155714094702  0.6691416726447981
  0.8344340221571867  0.6669249335916870  0.6669169194605011
  0.0009412382300020  0.8333874205865917  0.6664416446549146
  0.5007257894860182  0.1679453903915713  0.8316077276783245
  0.6666044726254349  0.3341400736536598  0.8325456024802561
  0.8352841556724372  0.4999221435066330  0.8342561245705373
  0.0011535607342334  0.6666147656260905  0.8330133684035127
  0.6674933152346114  0.1665360010439523 -0.0007727134570061
  0.8342700774462332  0.3331376540324982 -0.0005713040488729
  0.0010331270732866  0.4999186373890936 -0.0005965699977505
  0.1671388812988747  0.8333067112397037  0.1663057557826920
  0.3340018965046000  0.0000912742163127  0.1661630299171769
  0.1665400398149164  0.6660346785236061  0.3336318185802939
  0.3335069402013680  0.8335570143007985  0.3326611174998273
  0.5006680002149465  0.9973448866789226  0.3320400537935692
  0.1563112540271581  0.5008076516079788  0.4988316203391325
  0.3312670754782028  0.6696405052225419  0.4984620865172610
  0.5003291295202558  0.8322703672005749  0.5001564850185071
  0.6684137000882137 -0.0026420829355542  0.4997501072466163
  0.1675815497008920  0.3342085854445314  0.6654000892082516
  0.3406619703004325  0.4995996323173272  0.6596979853439984
  0.5020006871035725  0.6695799781361055  0.6692191587636498
  0.6678420016241046  0.8335347206147563  0.6669285962533068
  0.8342799159317212  0.0000929590825422  0.6664065835032748
  0.1680465464714671  0.1672237738808338  0.8323758028858987
  0.3349903165802087  0.3341977856225415  0.8328815118784415
  0.5015681200703698  0.5007464490553422  0.8441351554421810
  0.6668445614366170  0.6659505366027954  0.8339239948361509
  0.8341472426300673  0.8332914051577712  0.8332911542380256
  0.0009852641957188  0.0001561408436730  0.8329065744398483
  0.3342462967764036  0.1668405043715829 -0.0006563473419476
  0.5008525019041410  0.3327021102776414  0.0006074355726246
  0.6684207469602556  0.4997788326517611  0.0021435457318370
  0.8341226306546383  0.6665516238012222  0.0000915910061218
  0.0008384546205052  0.8333447404224856 -0.0003869289711214
  0.1674058004171321  0.0002982341807371  0.3329697951296938
  0.1661114915174133  0.8344284780626078  0.4996858573764082
  0.3336080101539056 -0.0010603452462626  0.4996179079170459
  0.1678472655500393  0.6657480759995994  0.6654480796458203
  0.3341100633575911  0.8329340750831359  0.6663545845981398
  0.5008822366314685 -0.0010860278694062  0.6668412476483121
  0.1687959054990879  0.4999074126694891  0.8316103948435952
  0.3349841629177994  0.6657279411228814  0.8326453709756593
  0.5007873439703849  0.8344146897802448  0.8343361112313296
  0.6674905544639762  0.0002854958404490  0.8330069127559977
  0.1676587439478912  0.3334219456851154 -0.0006582171571377
  0.3335714594118180  0.4999841437498181  0.0006789104090363
  0.5006535431479652  0.6675063586065806  0.0022370994412755
  0.6674111700861850  0.8332444967014478  0.0001069031511398
  0.8342250531799266 -0.0000514437785343 -0.0003977174205801
  0.1676519345822602  0.0002638524043518  0.6661954150988859
  0.1676823580216179  0.8332340197083256  0.8327476110116110
  0.3342482119919363  0.0002364584411508  0.8327649192650952
  0.1674204925676726  0.6666248674800407 -0.0006974090802862
  0.3340013859130656  0.8333855157513380 -0.0005017669346309
  0.5007794723152570  0.0001346570616365 -0.0005887457193261
  0.1675362817775192  0.0001526436602204 -0.0005903896972928
 
  0.00000000E+00  0.00000000E+00  0.00000000E+00
  0.00000000E+00  0.00000000E+00  0.00000000E+00
  0.00000000E+00  0.00000000E+00  0.00000000E+00
  0.00000000E+00  0.00000000E+00  0.00000000E+00
  0.00000000E+00  0.00000000E+00  0.00000000E+00
  0.00000000E+00  0.00000000E+00  0.00000000E+00
  0.00000000E+00  0.00000000E+00  0.00000000E+00
  0.00000000E+00  0.00000000E+00  0.00000000E+00
  0.00000000E+00  0.00000000E+00  0.00000000E+00
  0.00000000E+00  0.00000000E+00  0.00000000E+00
  0.00000000E+00  0.00000000E+00  0.00000000E+00
  0.00000000E+00  0.00000000E+00  0.00000000E+00
  0.00000000E+00  0.00000000E+00  0.00000000E+00
  0.00000000E+00  0.00000000E+00  0.00000000E+00
  0.00000000E+00  0.00000000E+00  0.00000000E+00
  0.00000000E+00  0.00000000E+00  0.00000000E+00
  0.00000000E+00  0.00000000E+00  0.00000000E+00
  0.00000000E+00  0.00000000E+00  0.00000000E+00
  0.00000000E+00  0.00000000E+00  0.00000000E+00
  0.00000000E+00  0.00000000E+00  0.00000000E+00
  0.00000000E+00  0.00000000E+00  0.00000000E+00
  0.00000000E+00  0.00000000E+00  0.00000000E+00
  0.00000000E+00  0.00000000E+00  0.00000000E+00
  0.00000000E+00  0.00000000E+00  0.00000000E+00
  0.00000000E+00  0.00000000E+00  0.00000000E+00
  0.00000000E+00  0.00000000E+00  0.00000000E+00
  0.00000000E+00  0.00000000E+00  0.00000000E+00
  0.00000000E+00  0.00000000E+00  0.00000000E+00
  0.00000000E+00  0.00000000E+00  0.00000000E+00
  0.00000000E+00  0.00000000E+00  0.00000000E+00
  0.00000000E+00  0.00000000E+00  0.00000000E+00
  0.00000000E+00  0.00000000E+00  0.00000000E+00
  0.00000000E+00  0.00000000E+00  0.00000000E+00
  0.00000000E+00  0.00000000E+00  0.00000000E+00
  0.00000000E+00  0.00000000E+00  0.00000000E+00
  0.00000000E+00  0.00000000E+00  0.00000000E+00
  0.00000000E+00  0.00000000E+00  0.00000000E+00
  0.00000000E+00  0.00000000E+00  0.00000000E+00
  0.00000000E+00  0.00000000E+00  0.00000000E+00
  0.00000000E+00  0.00000000E+00  0.00000000E+00
  0.00000000E+00  0.00000000E+00  0.00000000E+00
  0.00000000E+00  0.00000000E+00  0.00000000E+00
  0.00000000E+00  0.00000000E+00  0.00000000E+00
  0.00000000E+00  0.00000000E+00  0.00000000E+00
  0.00000000E+00  0.00000000E+00  0.00000000E+00
  0.00000000E+00  0.00000000E+00  0.00000000E+00
  0.00000000E+00  0.00000000E+00  0.00000000E+00
  0.00000000E+00  0.00000000E+00  0.00000000E+00
  0.00000000E+00  0.00000000E+00  0.00000000E+00
  0.00000000E+00  0.00000000E+00  0.00000000E+00
  0.00000000E+00  0.00000000E+00  0.00000000E+00
  0.00000000E+00  0.00000000E+00  0.00000000E+00
  0.00000000E+00  0.00000000E+00  0.00000000E+00
  0.00000000E+00  0.00000000E+00  0.00000000E+00
  0.00000000E+00  0.00000000E+00  0.00000000E+00
  0.00000000E+00  0.00000000E+00  0.00000000E+00
  0.00000000E+00  0.00000000E+00  0.00000000E+00
  0.00000000E+00  0.00000000E+00  0.00000000E+00
  0.00000000E+00  0.00000000E+00  0.00000000E+00
  0.00000000E+00  0.00000000E+00  0.00000000E+00
  0.00000000E+00  0.00000000E+00  0.00000000E+00
  0.00000000E+00  0.00000000E+00  0.00000000E+00
  0.00000000E+00  0.00000000E+00  0.00000000E+00
  0.00000000E+00  0.00000000E+00  0.00000000E+00
  0.00000000E+00  0.00000000E+00  0.00000000E+00
  0.00000000E+00  0.00000000E+00  0.00000000E+00
  0.00000000E+00  0.00000000E+00  0.00000000E+00
  0.00000000E+00  0.00000000E+00  0.00000000E+00
  0.00000000E+00  0.00000000E+00  0.00000000E+00
  0.00000000E+00  0.00000000E+00  0.00000000E+00
  0.00000000E+00  0.00000000E+00  0.00000000E+00
  0.00000000E+00  0.00000000E+00  0.00000000E+00
  0.00000000E+00  0.00000000E+00  0.00000000E+00
  0.00000000E+00  0.00000000E+00  0.00000000E+00
  0.00000000E+00  0.00000000E+00  0.00000000E+00
  0.00000000E+00  0.00000000E+00  0.00000000E+00
  0.00000000E+00  0.00000000E+00  0.00000000E+00
  0.00000000E+00  0.00000000E+00  0.00000000E+00
  0.00000000E+00  0.00000000E+00  0.00000000E+00
  0.00000000E+00  0.00000000E+00  0.00000000E+00
  0.00000000E+00  0.00000000E+00  0.00000000E+00
  0.00000000E+00  0.00000000E+00  0.00000000E+00
  0.00000000E+00  0.00000000E+00  0.00000000E+00
  0.00000000E+00  0.00000000E+00  0.00000000E+00
  0.00000000E+00  0.00000000E+00  0.00000000E+00
  0.00000000E+00  0.00000000E+00  0.00000000E+00
  0.00000000E+00  0.00000000E+00  0.00000000E+00
  0.00000000E+00  0.00000000E+00  0.00000000E+00
  0.00000000E+00  0.00000000E+00  0.00000000E+00
  0.00000000E+00  0.00000000E+00  0.00000000E+00
  0.00000000E+00  0.00000000E+00  0.00000000E+00
  0.00000000E+00  0.00000000E+00  0.00000000E+00
  0.00000000E+00  0.00000000E+00  0.00000000E+00
  0.00000000E+00  0.00000000E+00  0.00000000E+00
  0.00000000E+00  0.00000000E+00  0.00000000E+00
  0.00000000E+00  0.00000000E+00  0.00000000E+00
  0.00000000E+00  0.00000000E+00  0.00000000E+00
  0.00000000E+00  0.00000000E+00  0.00000000E+00
  0.00000000E+00  0.00000000E+00  0.00000000E+00
  0.00000000E+00  0.00000000E+00  0.00000000E+00
  0.00000000E+00  0.00000000E+00  0.00000000E+00
  0.00000000E+00  0.00000000E+00  0.00000000E+00
  0.00000000E+00  0.00000000E+00  0.00000000E+00
  0.00000000E+00  0.00000000E+00  0.00000000E+00
  0.00000000E+00  0.00000000E+00  0.00000000E+00
  0.00000000E+00  0.00000000E+00  0.00000000E+00
  0.00000000E+00  0.00000000E+00  0.00000000E+00
  0.00000000E+00  0.00000000E+00  0.00000000E+00
  0.00000000E+00  0.00000000E+00  0.00000000E+00
  0.00000000E+00  0.00000000E+00  0.00000000E+00
  0.00000000E+00  0.00000000E+00  0.00000000E+00
  0.00000000E+00  0.00000000E+00  0.00000000E+00
  0.00000000E+00  0.00000000E+00  0.00000000E+00
  0.00000000E+00  0.00000000E+00  0.00000000E+00
  0.00000000E+00  0.00000000E+00  0.00000000E+00
  0.00000000E+00  0.00000000E+00  0.00000000E+00
  0.00000000E+00  0.00000000E+00  0.00000000E+00
  0.00000000E+00  0.00000000E+00  0.00000000E+00
  0.00000000E+00  0.00000000E+00  0.00000000E+00
  0.00000000E+00  0.00000000E+00  0.00000000E+00
  0.00000000E+00  0.00000000E+00  0.00000000E+00
  0.00000000E+00  0.00000000E+00  0.00000000E+00
  0.00000000E+00  0.00000000E+00  0.00000000E+00
  0.00000000E+00  0.00000000E+00  0.00000000E+00
  0.00000000E+00  0.00000000E+00  0.00000000E+00
  0.00000000E+00  0.00000000E+00  0.00000000E+00
  0.00000000E+00  0.00000000E+00  0.00000000E+00
  0.00000000E+00  0.00000000E+00  0.00000000E+00
  0.00000000E+00  0.00000000E+00  0.00000000E+00
  0.00000000E+00  0.00000000E+00  0.00000000E+00
  0.00000000E+00  0.00000000E+00  0.00000000E+00
  0.00000000E+00  0.00000000E+00  0.00000000E+00
  0.00000000E+00  0.00000000E+00  0.00000000E+00
  0.00000000E+00  0.00000000E+00  0.00000000E+00
  0.00000000E+00  0.00000000E+00  0.00000000E+00
  0.00000000E+00  0.00000000E+00  0.00000000E+00
  0.00000000E+00  0.00000000E+00  0.00000000E+00
  0.00000000E+00  0.00000000E+00  0.00000000E+00
  0.00000000E+00  0.00000000E+00  0.00000000E+00
  0.00000000E+00  0.00000000E+00  0.00000000E+00
  0.00000000E+00  0.00000000E+00  0.00000000E+00
  0.00000000E+00  0.00000000E+00  0.00000000E+00
  0.00000000E+00  0.00000000E+00  0.00000000E+00
  0.00000000E+00  0.00000000E+00  0.00000000E+00
  0.00000000E+00  0.00000000E+00  0.00000000E+00
  0.00000000E+00  0.00000000E+00  0.00000000E+00
  0.00000000E+00  0.00000000E+00  0.00000000E+00
  0.00000000E+00  0.00000000E+00  0.00000000E+00
  0.00000000E+00  0.00000000E+00  0.00000000E+00
  0.00000000E+00  0.00000000E+00  0.00000000E+00
  0.00000000E+00  0.00000000E+00  0.00000000E+00
  0.00000000E+00  0.00000000E+00  0.00000000E+00
  0.00000000E+00  0.00000000E+00  0.00000000E+00
  0.00000000E+00  0.00000000E+00  0.00000000E+00
  0.00000000E+00  0.00000000E+00  0.00000000E+00
  0.00000000E+00  0.00000000E+00  0.00000000E+00
  0.00000000E+00  0.00000000E+00  0.00000000E+00
  0.00000000E+00  0.00000000E+00  0.00000000E+00
  0.00000000E+00  0.00000000E+00  0.00000000E+00
  0.00000000E+00  0.00000000E+00  0.00000000E+00
  0.00000000E+00  0.00000000E+00  0.00000000E+00
  0.00000000E+00  0.00000000E+00  0.00000000E+00
  0.00000000E+00  0.00000000E+00  0.00000000E+00
  0.00000000E+00  0.00000000E+00  0.00000000E+00
  0.00000000E+00  0.00000000E+00  0.00000000E+00
  0.00000000E+00  0.00000000E+00  0.00000000E+00
  0.00000000E+00  0.00000000E+00  0.00000000E+00
  0.00000000E+00  0.00000000E+00  0.00000000E+00
  0.00000000E+00  0.00000000E+00  0.00000000E+00
  0.00000000E+00  0.00000000E+00  0.00000000E+00
  0.00000000E+00  0.00000000E+00  0.00000000E+00
  0.00000000E+00  0.00000000E+00  0.00000000E+00
  0.00000000E+00  0.00000000E+00  0.00000000E+00
  0.00000000E+00  0.00000000E+00  0.00000000E+00
  0.00000000E+00  0.00000000E+00  0.00000000E+00
  0.00000000E+00  0.00000000E+00  0.00000000E+00
  0.00000000E+00  0.00000000E+00  0.00000000E+00
  0.00000000E+00  0.00000000E+00  0.00000000E+00
  0.00000000E+00  0.00000000E+00  0.00000000E+00
  0.00000000E+00  0.00000000E+00  0.00000000E+00
  0.00000000E+00  0.00000000E+00  0.00000000E+00
  0.00000000E+00  0.00000000E+00  0.00000000E+00
  0.00000000E+00  0.00000000E+00  0.00000000E+00
  0.00000000E+00  0.00000000E+00  0.00000000E+00
  0.00000000E+00  0.00000000E+00  0.00000000E+00
  0.00000000E+00  0.00000000E+00  0.00000000E+00
  0.00000000E+00  0.00000000E+00  0.00000000E+00
  0.00000000E+00  0.00000000E+00  0.00000000E+00
  0.00000000E+00  0.00000000E+00  0.00000000E+00
  0.00000000E+00  0.00000000E+00  0.00000000E+00
  0.00000000E+00  0.00000000E+00  0.00000000E+00
  0.00000000E+00  0.00000000E+00  0.00000000E+00
  0.00000000E+00  0.00000000E+00  0.00000000E+00
  0.00000000E+00  0.00000000E+00  0.00000000E+00
  0.00000000E+00  0.00000000E+00  0.00000000E+00
  0.00000000E+00  0.00000000E+00  0.00000000E+00
  0.00000000E+00  0.00000000E+00  0.00000000E+00
  0.00000000E+00  0.00000000E+00  0.00000000E+00
  0.00000000E+00  0.00000000E+00  0.00000000E+00
  0.00000000E+00  0.00000000E+00  0.00000000E+00
  0.00000000E+00  0.00000000E+00  0.00000000E+00
  0.00000000E+00  0.00000000E+00  0.00000000E+00
  0.00000000E+00  0.00000000E+00  0.00000000E+00
  0.00000000E+00  0.00000000E+00  0.00000000E+00
  0.00000000E+00  0.00000000E+00  0.00000000E+00
  0.00000000E+00  0.00000000E+00  0.00000000E+00
  0.00000000E+00  0.00000000E+00  0.00000000E+00
  0.00000000E+00  0.00000000E+00  0.00000000E+00
  0.00000000E+00  0.00000000E+00  0.00000000E+00
  0.00000000E+00  0.00000000E+00  0.00000000E+00
  0.00000000E+00  0.00000000E+00  0.00000000E+00
  0.00000000E+00  0.00000000E+00  0.00000000E+00
  0.00000000E+00  0.00000000E+00  0.00000000E+00
  0.00000000E+00  0.00000000E+00  0.00000000E+00
  0.00000000E+00  0.00000000E+00  0.00000000E+00
  0.00000000E+00  0.00000000E+00  0.00000000E+00
