-50.0% N(Distort)=4 ~[0.5,0.5,0.5]      
   1.00000000000000     
    12.5998379999999983    0.0000000000000004    0.0000000000000004
     0.0000000000000004   12.5998379999999983   -0.0000000000000004
    -0.0000000000000004   -0.0000000000000004   12.5998379999999983
   Mg   O 
   109   107
Direct
  0.6752413625651155 -0.0015675361897132  0.0001984124801572
  0.8164163785230276  0.1701495994789208 -0.0017047910047261
  0.8355147985062271 -0.0041794106794202  0.1716735045683040
  0.3471932308808940 -0.0232438863602297 -0.0094083879649375
  0.5192321360623646  0.1465535556612787 -0.0089764763192141
  0.6634418037190856  0.3346561949567126  0.0025278019960679
  0.8319966680446156  0.5076847258199865  0.0029679983395921
  0.5013313324518733 -0.0039327455555866  0.1637156341316176
  0.6761671368749601  0.1667700825730762  0.1703732071894383
  0.8223082291700209  0.3507213271805252  0.1668152646421795
  0.6685154142324415 -0.0067742514608294  0.3299666390074474
  0.8317765050129160  0.1555254789201491  0.3378411863149297
  0.8298871721813650 -0.0085425795405160  0.5033541049902931
  0.0026529622561303  0.0043322464173358  0.0008409633910626
  0.2731157325780222  0.2408920506068327  0.2447393037168600
  0.3297661800115393  0.3376831101397866 -0.0148655622051006
  0.5042211123988068  0.5029793067095256 -0.0089139020476915
  0.6639522311439634  0.6676607260687989 -0.0011656416947368
  0.8315196893562854  0.8326583174736852  0.0023139767016802
  0.1602263000846565 -0.0224257773366108  0.1622624330062787
  0.2555023943796650  0.1216293917415308  0.0745063610164186
  0.4712255532261431  0.2812480727768144  0.1320175401769806
  0.6649010482818860  0.5119952006571872  0.1606544305436437
  0.8307923694751338  0.6699296817763055  0.1684719463194282
  0.3399885271327573  0.0016894772971234  0.3279939120102479
  0.5021226963101215  0.1601669829373663  0.3305204706596394
  0.6648989124072412  0.3282661032614983  0.3381797730193878
  0.8349860445634188  0.5117779129846329  0.3360228652249138
  0.5038101370905586 -0.0010375569027725  0.5040061173460504
  0.6624899016564048  0.1609513781247009  0.4989594025545266
  0.8327434500037343  0.3292695454862653  0.4895226430124829
  0.6642782286970149 -0.0080668327283674  0.6654121782118486
  0.8278348840129000  0.1512427256983531  0.6600551939255693
  0.8339104551874669 -0.0098053668882156  0.8307591078354469
  0.0001382112495183  0.3369634335625716 -0.0000039338481625
  0.1651167140657569  0.5077151507379442 -0.0071845958214340
  0.3400191016276889  0.6657436151176898 -0.0050526925553830
  0.5086864703307348  0.8294912927726986 -0.0050948910436194
 -0.0043061147142034  0.1746453417710835  0.1659481145830078
  0.1451972341694720  0.3507973028171490  0.1475122776073621
  0.3330101243706826  0.5113259003102352  0.1575346991103362
  0.4957626697045492  0.6746048685233824  0.1640222706272531
  0.6639647845807780  0.8318481391229018  0.1688047906459167
 -0.0086646761430425 -0.0106430801172652  0.3408256492233609
  0.1402987372932634  0.1386424432807663  0.3359543841548224
  0.3484980991052075  0.3558675851431571  0.3631444469556585
  0.5109254535189948  0.4233514304625974  0.2461477293315791
  0.6586462478328805  0.6678308412867509  0.3320857210320282
  0.8322867065586742  0.8280954823486170  0.3307695400150453
  0.1712684448916849 -0.0021000732382607  0.5114675100429069
  0.3358389291336531  0.1544108963860817  0.4987756205435203
  0.5010297276046494  0.3184077553104883  0.5111248712871918
  0.6731927293351252  0.4970925204374051  0.5057378526251509
  0.8326527920078864  0.6767035599994391  0.4977891572563430
  0.3347295810484613  0.0016749897641358  0.6741816242283164
  0.4986897804352332  0.1627729979568555  0.6709811795875106
  0.6911496042900382  0.3313382888781825  0.6710893593882910
  0.8357580798282929  0.5169212891445779  0.6641932119458159
  0.5059215758687974  0.0001065947777757  0.8320956551919150
  0.6732138282015433  0.1714542128906502  0.8254745009725297
  0.8337053151061644  0.3519706012467572  0.8509868153325399
 -0.0049619482317955  0.6683334782628978 -0.0027374457102161
  0.1694197877363402  0.8260203626444972 -0.0038263998226799
 -0.0070565017750501  0.5081400157049628  0.1655465603725034
  0.1660287068145714  0.6663440541423317  0.1683387925575704
  0.3325935134916006  0.8281856359379508  0.1646368172454987
 -0.0148351913222890  0.3287742871113645  0.3272599552815023
  0.1595629419934030  0.4964883568949666  0.3346609630267268
  0.3353200915485808  0.6698708131057166  0.3359050933631171
  0.4991420550453078  0.8341390595397855  0.3383088298083483
 -0.0021340825675426  0.1651617013326811  0.5030886941220707
  0.1652822267462036  0.3239503576379064  0.4985484182065339
  0.3248145897979610  0.5032572376880208  0.5123276204975664
  0.5010633067980413  0.6876630552649420  0.5131397932290720
  0.6671445450596645  0.8325482745310855  0.5006840493197651
  0.0015125969596420 -0.0028899047021924  0.6691723639106970
  0.1662966495922248  0.1693774186246578  0.6670182239608591
  0.3354805379044969  0.3285647269943140  0.6689657781325807
  0.4985605641879426  0.4975462519950005  0.6660712658448991
  0.6634702128345557  0.6635461644615316  0.6664578315106495
  0.8325884876496022  0.8269699256944183  0.6692293356510126
  0.1699584613673550  0.0023651691202660  0.8334489775549047
  0.3266144051030405  0.1685340857440617  0.8453062649137656
  0.4998058150486736  0.3310233764547027  0.8324257382384531
  0.6641436474652985  0.5015518959387310  0.8288682269277803
  0.8319567218791496  0.6692780812334306  0.8341191602346244
 -0.0000984949654813  0.8306507642960802  0.1627840942390776
  0.0047933956101260  0.6649144974182856  0.3348704117261630
  0.1734155311362915  0.8360844715780552  0.3422292317110600
 -0.0021145721851534  0.4971286089384503  0.5047425100356304
  0.1690034646009812  0.6649142027736863  0.5028981960817114
  0.3324471246880356  0.8359895432044013  0.5073808071537335
 -0.0072647326470599  0.3300457847619310  0.6660922516140583
  0.1682337421447628  0.4981148946522900  0.6666983957625260
  0.3344784669674384  0.6688164358172359  0.6676469117367265
  0.4973893156619307  0.8355974907289299  0.6722964295345151
  0.0031523453644143  0.1711985403011750  0.8295543057291346
  0.1637516353553850  0.3336898954345701  0.8290712636886262
  0.3341560294865492  0.5029101292946575  0.8295632866427838
  0.5011660512605359  0.6653882093720268  0.8320700684004948
  0.6656614342988459  0.8308585157604239  0.8331793143816402
  0.0032767966238920  0.8301974385179755  0.5048777810270868
  0.0038559313940491  0.6687094718109530  0.6690345317709403
  0.1692289646512047  0.8310856639389365  0.6725216195961289
  0.0018350266752342  0.5011458444730980  0.8304386917789635
  0.1661885777423652  0.6655517320354485  0.8313168005548590
  0.3341704118886739  0.8256986004771084  0.8307162565300665
  0.0017299613427864  0.8342482553579269  0.8373270888628526
  0.5006772733670538  0.5296085568126000  0.3988472686732835
  0.8202934384598609  0.2028833470594137  0.8020551403933093
 -0.0064161145708201  0.3418297379625280  0.1687889924800761
 -0.0125961806372366  0.1627917065851452  0.3407847330890034
  0.5172579569345070  0.1478841863486582  0.1612474672526475
  0.6463411503867821  0.3419907091774441  0.1741122064699586
  0.8276926636110027  0.5054275488325283  0.1695413660748319
 -0.0002647638428741  0.6664282536006392  0.1659796179823416
  0.6691318105685040  0.1638094119272512  0.3370083091555590
  0.8324503709448551  0.3432149318918972  0.3327862283175690
 -0.0011445717276647  0.4993952204884937  0.3301852729046190
  0.8276632506636158  0.1618270377930072  0.5008576694303740
  0.0033712395916471  0.3306846681794997  0.4870318014042495
 -0.0028287235196166  0.1646513561482570  0.6636575809775601
  0.1568900167921032  0.1811517074090450  0.1725532991012539
  0.3542487795963723  0.3555730731513637  0.1922618940031161
  0.4960481437082375  0.5227565438626073  0.1444907743246655
  0.6606929223062949  0.6706209002614182  0.1660311217898379
  0.8359387775458188  0.8316900232490084  0.1692070200880042
  0.0045550609074935  0.0020769683806554  0.1678415057030234
  0.3429812429494126  0.1621099384553437  0.3482045016519634
  0.5036926385805447  0.3151943216767293  0.3506849920907188
  0.6404311160465912  0.5016947062817381  0.3282545070914530
  0.8294634824031613  0.6695554683397691  0.3300480615282607
  0.0065789716810276  0.8292352019814506  0.3363146912773133
  0.5025155567528788  0.1572560418787225  0.5032041877543588
  0.6666751311073534  0.3304970244378931  0.5020726306927211
  0.8305256848094086  0.5194352107706138  0.4893919967889772
  0.0032664579129413  0.6707453757666787  0.5009312512250340
  0.6612707332541718  0.1568465080147902  0.6585158036568979
  0.8455671136473281  0.3632340995052349  0.6370952944719620
  0.0067313787195149  0.5085767302745189  0.6677610888646031
  0.8245057434038447  0.1632357846196441 -0.8275747221322772
  0.0024244799269571  0.3364226093307242  0.8380957125121012
  0.6754519829817235  0.1668389409168576  0.0005774713797129
  0.1666955528402588  0.5028770734576344  0.1646952827625041
  0.3324219906242081  0.6678643741145700  0.1648022747857360
  0.4961608934138764  0.8359189459712560  0.1678100819078324
  0.6723264796687424 -0.0028602192775421  0.1670852042593170
  0.1782000723220012  0.3336004610880089  0.3294377489115464
  0.3557404096762632  0.5071585895991376  0.3379181892777678
  0.4980499270658069  0.6768779441070750  0.3445005636214545
  0.6638524085571873  0.8306335884777798  0.3348428809383530
  0.8321113546930522 -0.0032358118735652  0.3333960070190270
  0.1662180240293921  0.1553003732996757  0.4935588940906169
  0.3315745234052606  0.3326701165485524  0.5127767224034736
  0.6629891314249322  0.6650283772572084  0.4977000808000190
  0.8284877442984127  0.8310890564168344  0.4984778553973997
 -0.0047548290957917 -0.0074117810376662  0.5047629801070742
  0.3347699752982832  0.1643198207765080  0.6719699949606275
  0.5036603389222829  0.3287405986897097  0.6703278136061599
  0.6657703993911342  0.5025691906604962  0.6654620995892320
  0.8323237776040717  0.6680436016841714  0.6671482530574561
 -0.0033987930485114  0.8330580075484653  0.6712586181271571
  0.5042127878013732  0.1631707107876104  0.8356415417908858
  0.6619043177654137  0.3398753385483574  0.8355510179283683
  0.8356531432736862  0.5064070446849226  0.8324864428138505
 -0.0011519206506281  0.6680254510147354  0.8354285534657058
 -0.0287542406019798  0.1690335162288268  0.0013683904373849
  0.8286086016047048  0.3399962253908947  0.0065485304710324
 -0.0018074739299014  0.5027165213445769 -0.0008255932550736
  0.1649249905908537  0.8241452030528583  0.1666663113076077
  0.3252904526062535 -0.0026405668275542  0.1577303301680830
  0.1712689632414270  0.6632664339044270  0.3355013792875146
  0.3365492383633555  0.8355247503796820  0.3329144686555086
  0.5040538128150498 -0.0022949932498647  0.3333408002321771
  0.1673177057374747  0.5006852489203257  0.4974307533162227
  0.3369582156835171  0.6693703390255031  0.5014956299885843
  0.4979910586991426  0.8362007911046072  0.5041125926238138
  0.6671933351562630 -0.0073141237120450  0.4982300925243332
  0.1617798728815410  0.3325622711883688  0.6595191339284218
  0.3319050188300801  0.5017145458725167  0.6689044010033500
  0.4985744195202284  0.6665280600926589  0.6712061862432054
  0.6666354763272959  0.8287387221198962  0.6663137150494406
  0.8292784798611057 -0.0074570501705741  0.6672359382008697
  0.1578732586410145  0.1670454874298019  0.8285125213760713
  0.3339824865618330  0.3335239341481981  0.8291496507535272
  0.4988276755399935  0.5009939174070596  0.8315628636492014
  0.6671545277436226  0.6653713357817447  0.8314101313955489
  0.8324317759186388  0.8307652880297250  0.8361704522285988
 -0.0007443765043134  0.0085134114529712  0.8324507800556243
  0.3607835436913466  0.1832333966437546 -0.0067871871491805
  0.4993514479047158  0.3376645594761094 -0.0032461813133990
  0.6705879190076169  0.5015100322631049 -0.0039383680902245
  0.8302839159834199  0.6684178398582675  0.0004154149622948
 -0.0004646972728746  0.8331495566444923 -0.0012444363075802
  0.1709090574577473 -0.0221596693251049  0.3330760799508780
  0.1697234523599263  0.8295970457995937  0.5101819175643121
  0.3379303005427925 -0.0015464883706412  0.5105197953822941
  0.1684502341862252  0.6682011423083937  0.6685830539036135
  0.3327347971132025  0.8326131161708982  0.6704067007995412
  0.5025104510839422 -0.0030075339814071  0.6712836510397626
  0.1666085136760361  0.4997014773321867  0.8290890931743932
  0.3327645569958857  0.6644331572142281  0.8304824017846935
  0.4979319812380479  0.8297865007832962  0.8327467865301660
  0.6716129705769647 -0.0009104118853749  0.8312835320078998
  0.1695109950031058  0.3469381718372905 -0.0017142343058880
  0.3332281942496830  0.5013590973515433 -0.0065450626442013
  0.5038674317899265  0.6714677661349313 -0.0034754592663872
  0.6648277571949760  0.8335647095862813 -0.0007391339512341
  0.8358164289603355  0.0005152223171153  0.0020652562244690
  0.1691786785822359 -0.0043098250045406  0.6709072013110969
  0.1669144335442137  0.8338154494075291  0.8349610443133836
  0.3374064644702995 -0.0005379118675210  0.8354334793774338
  0.1673705432532188  0.6654853466815481 -0.0025663508980545
  0.3381535030149935  0.8242310104519570 -0.0026915547010035
  0.5086179710148448 -0.0113224904202732 -0.0050365817204503
  0.1744156163694389 -0.0035992313501441  0.0007512627983696
 
  0.00000000E+00  0.00000000E+00  0.00000000E+00
  0.00000000E+00  0.00000000E+00  0.00000000E+00
  0.00000000E+00  0.00000000E+00  0.00000000E+00
  0.00000000E+00  0.00000000E+00  0.00000000E+00
  0.00000000E+00  0.00000000E+00  0.00000000E+00
  0.00000000E+00  0.00000000E+00  0.00000000E+00
  0.00000000E+00  0.00000000E+00  0.00000000E+00
  0.00000000E+00  0.00000000E+00  0.00000000E+00
  0.00000000E+00  0.00000000E+00  0.00000000E+00
  0.00000000E+00  0.00000000E+00  0.00000000E+00
  0.00000000E+00  0.00000000E+00  0.00000000E+00
  0.00000000E+00  0.00000000E+00  0.00000000E+00
  0.00000000E+00  0.00000000E+00  0.00000000E+00
  0.00000000E+00  0.00000000E+00  0.00000000E+00
  0.00000000E+00  0.00000000E+00  0.00000000E+00
  0.00000000E+00  0.00000000E+00  0.00000000E+00
  0.00000000E+00  0.00000000E+00  0.00000000E+00
  0.00000000E+00  0.00000000E+00  0.00000000E+00
  0.00000000E+00  0.00000000E+00  0.00000000E+00
  0.00000000E+00  0.00000000E+00  0.00000000E+00
  0.00000000E+00  0.00000000E+00  0.00000000E+00
  0.00000000E+00  0.00000000E+00  0.00000000E+00
  0.00000000E+00  0.00000000E+00  0.00000000E+00
  0.00000000E+00  0.00000000E+00  0.00000000E+00
  0.00000000E+00  0.00000000E+00  0.00000000E+00
  0.00000000E+00  0.00000000E+00  0.00000000E+00
  0.00000000E+00  0.00000000E+00  0.00000000E+00
  0.00000000E+00  0.00000000E+00  0.00000000E+00
  0.00000000E+00  0.00000000E+00  0.00000000E+00
  0.00000000E+00  0.00000000E+00  0.00000000E+00
  0.00000000E+00  0.00000000E+00  0.00000000E+00
  0.00000000E+00  0.00000000E+00  0.00000000E+00
  0.00000000E+00  0.00000000E+00  0.00000000E+00
  0.00000000E+00  0.00000000E+00  0.00000000E+00
  0.00000000E+00  0.00000000E+00  0.00000000E+00
  0.00000000E+00  0.00000000E+00  0.00000000E+00
  0.00000000E+00  0.00000000E+00  0.00000000E+00
  0.00000000E+00  0.00000000E+00  0.00000000E+00
  0.00000000E+00  0.00000000E+00  0.00000000E+00
  0.00000000E+00  0.00000000E+00  0.00000000E+00
  0.00000000E+00  0.00000000E+00  0.00000000E+00
  0.00000000E+00  0.00000000E+00  0.00000000E+00
  0.00000000E+00  0.00000000E+00  0.00000000E+00
  0.00000000E+00  0.00000000E+00  0.00000000E+00
  0.00000000E+00  0.00000000E+00  0.00000000E+00
  0.00000000E+00  0.00000000E+00  0.00000000E+00
  0.00000000E+00  0.00000000E+00  0.00000000E+00
  0.00000000E+00  0.00000000E+00  0.00000000E+00
  0.00000000E+00  0.00000000E+00  0.00000000E+00
  0.00000000E+00  0.00000000E+00  0.00000000E+00
  0.00000000E+00  0.00000000E+00  0.00000000E+00
  0.00000000E+00  0.00000000E+00  0.00000000E+00
  0.00000000E+00  0.00000000E+00  0.00000000E+00
  0.00000000E+00  0.00000000E+00  0.00000000E+00
  0.00000000E+00  0.00000000E+00  0.00000000E+00
  0.00000000E+00  0.00000000E+00  0.00000000E+00
  0.00000000E+00  0.00000000E+00  0.00000000E+00
  0.00000000E+00  0.00000000E+00  0.00000000E+00
  0.00000000E+00  0.00000000E+00  0.00000000E+00
  0.00000000E+00  0.00000000E+00  0.00000000E+00
  0.00000000E+00  0.00000000E+00  0.00000000E+00
  0.00000000E+00  0.00000000E+00  0.00000000E+00
  0.00000000E+00  0.00000000E+00  0.00000000E+00
  0.00000000E+00  0.00000000E+00  0.00000000E+00
  0.00000000E+00  0.00000000E+00  0.00000000E+00
  0.00000000E+00  0.00000000E+00  0.00000000E+00
  0.00000000E+00  0.00000000E+00  0.00000000E+00
  0.00000000E+00  0.00000000E+00  0.00000000E+00
  0.00000000E+00  0.00000000E+00  0.00000000E+00
  0.00000000E+00  0.00000000E+00  0.00000000E+00
  0.00000000E+00  0.00000000E+00  0.00000000E+00
  0.00000000E+00  0.00000000E+00  0.00000000E+00
  0.00000000E+00  0.00000000E+00  0.00000000E+00
  0.00000000E+00  0.00000000E+00  0.00000000E+00
  0.00000000E+00  0.00000000E+00  0.00000000E+00
  0.00000000E+00  0.00000000E+00  0.00000000E+00
  0.00000000E+00  0.00000000E+00  0.00000000E+00
  0.00000000E+00  0.00000000E+00  0.00000000E+00
  0.00000000E+00  0.00000000E+00  0.00000000E+00
  0.00000000E+00  0.00000000E+00  0.00000000E+00
  0.00000000E+00  0.00000000E+00  0.00000000E+00
  0.00000000E+00  0.00000000E+00  0.00000000E+00
  0.00000000E+00  0.00000000E+00  0.00000000E+00
  0.00000000E+00  0.00000000E+00  0.00000000E+00
  0.00000000E+00  0.00000000E+00  0.00000000E+00
  0.00000000E+00  0.00000000E+00  0.00000000E+00
  0.00000000E+00  0.00000000E+00  0.00000000E+00
  0.00000000E+00  0.00000000E+00  0.00000000E+00
  0.00000000E+00  0.00000000E+00  0.00000000E+00
  0.00000000E+00  0.00000000E+00  0.00000000E+00
  0.00000000E+00  0.00000000E+00  0.00000000E+00
  0.00000000E+00  0.00000000E+00  0.00000000E+00
  0.00000000E+00  0.00000000E+00  0.00000000E+00
  0.00000000E+00  0.00000000E+00  0.00000000E+00
  0.00000000E+00  0.00000000E+00  0.00000000E+00
  0.00000000E+00  0.00000000E+00  0.00000000E+00
  0.00000000E+00  0.00000000E+00  0.00000000E+00
  0.00000000E+00  0.00000000E+00  0.00000000E+00
  0.00000000E+00  0.00000000E+00  0.00000000E+00
  0.00000000E+00  0.00000000E+00  0.00000000E+00
  0.00000000E+00  0.00000000E+00  0.00000000E+00
  0.00000000E+00  0.00000000E+00  0.00000000E+00
  0.00000000E+00  0.00000000E+00  0.00000000E+00
  0.00000000E+00  0.00000000E+00  0.00000000E+00
  0.00000000E+00  0.00000000E+00  0.00000000E+00
  0.00000000E+00  0.00000000E+00  0.00000000E+00
  0.00000000E+00  0.00000000E+00  0.00000000E+00
  0.00000000E+00  0.00000000E+00  0.00000000E+00
  0.00000000E+00  0.00000000E+00  0.00000000E+00
  0.00000000E+00  0.00000000E+00  0.00000000E+00
  0.00000000E+00  0.00000000E+00  0.00000000E+00
  0.00000000E+00  0.00000000E+00  0.00000000E+00
  0.00000000E+00  0.00000000E+00  0.00000000E+00
  0.00000000E+00  0.00000000E+00  0.00000000E+00
  0.00000000E+00  0.00000000E+00  0.00000000E+00
  0.00000000E+00  0.00000000E+00  0.00000000E+00
  0.00000000E+00  0.00000000E+00  0.00000000E+00
  0.00000000E+00  0.00000000E+00  0.00000000E+00
  0.00000000E+00  0.00000000E+00  0.00000000E+00
  0.00000000E+00  0.00000000E+00  0.00000000E+00
  0.00000000E+00  0.00000000E+00  0.00000000E+00
  0.00000000E+00  0.00000000E+00  0.00000000E+00
  0.00000000E+00  0.00000000E+00  0.00000000E+00
  0.00000000E+00  0.00000000E+00  0.00000000E+00
  0.00000000E+00  0.00000000E+00  0.00000000E+00
  0.00000000E+00  0.00000000E+00  0.00000000E+00
  0.00000000E+00  0.00000000E+00  0.00000000E+00
  0.00000000E+00  0.00000000E+00  0.00000000E+00
  0.00000000E+00  0.00000000E+00  0.00000000E+00
  0.00000000E+00  0.00000000E+00  0.00000000E+00
  0.00000000E+00  0.00000000E+00  0.00000000E+00
  0.00000000E+00  0.00000000E+00  0.00000000E+00
  0.00000000E+00  0.00000000E+00  0.00000000E+00
  0.00000000E+00  0.00000000E+00  0.00000000E+00
  0.00000000E+00  0.00000000E+00  0.00000000E+00
  0.00000000E+00  0.00000000E+00  0.00000000E+00
  0.00000000E+00  0.00000000E+00  0.00000000E+00
  0.00000000E+00  0.00000000E+00  0.00000000E+00
  0.00000000E+00  0.00000000E+00  0.00000000E+00
  0.00000000E+00  0.00000000E+00  0.00000000E+00
  0.00000000E+00  0.00000000E+00  0.00000000E+00
  0.00000000E+00  0.00000000E+00  0.00000000E+00
  0.00000000E+00  0.00000000E+00  0.00000000E+00
  0.00000000E+00  0.00000000E+00  0.00000000E+00
  0.00000000E+00  0.00000000E+00  0.00000000E+00
  0.00000000E+00  0.00000000E+00  0.00000000E+00
  0.00000000E+00  0.00000000E+00  0.00000000E+00
  0.00000000E+00  0.00000000E+00  0.00000000E+00
  0.00000000E+00  0.00000000E+00  0.00000000E+00
  0.00000000E+00  0.00000000E+00  0.00000000E+00
  0.00000000E+00  0.00000000E+00  0.00000000E+00
  0.00000000E+00  0.00000000E+00  0.00000000E+00
  0.00000000E+00  0.00000000E+00  0.00000000E+00
  0.00000000E+00  0.00000000E+00  0.00000000E+00
  0.00000000E+00  0.00000000E+00  0.00000000E+00
  0.00000000E+00  0.00000000E+00  0.00000000E+00
  0.00000000E+00  0.00000000E+00  0.00000000E+00
  0.00000000E+00  0.00000000E+00  0.00000000E+00
  0.00000000E+00  0.00000000E+00  0.00000000E+00
  0.00000000E+00  0.00000000E+00  0.00000000E+00
  0.00000000E+00  0.00000000E+00  0.00000000E+00
  0.00000000E+00  0.00000000E+00  0.00000000E+00
  0.00000000E+00  0.00000000E+00  0.00000000E+00
  0.00000000E+00  0.00000000E+00  0.00000000E+00
  0.00000000E+00  0.00000000E+00  0.00000000E+00
  0.00000000E+00  0.00000000E+00  0.00000000E+00
  0.00000000E+00  0.00000000E+00  0.00000000E+00
  0.00000000E+00  0.00000000E+00  0.00000000E+00
  0.00000000E+00  0.00000000E+00  0.00000000E+00
  0.00000000E+00  0.00000000E+00  0.00000000E+00
  0.00000000E+00  0.00000000E+00  0.00000000E+00
  0.00000000E+00  0.00000000E+00  0.00000000E+00
  0.00000000E+00  0.00000000E+00  0.00000000E+00
  0.00000000E+00  0.00000000E+00  0.00000000E+00
  0.00000000E+00  0.00000000E+00  0.00000000E+00
  0.00000000E+00  0.00000000E+00  0.00000000E+00
  0.00000000E+00  0.00000000E+00  0.00000000E+00
  0.00000000E+00  0.00000000E+00  0.00000000E+00
  0.00000000E+00  0.00000000E+00  0.00000000E+00
  0.00000000E+00  0.00000000E+00  0.00000000E+00
  0.00000000E+00  0.00000000E+00  0.00000000E+00
  0.00000000E+00  0.00000000E+00  0.00000000E+00
  0.00000000E+00  0.00000000E+00  0.00000000E+00
  0.00000000E+00  0.00000000E+00  0.00000000E+00
  0.00000000E+00  0.00000000E+00  0.00000000E+00
  0.00000000E+00  0.00000000E+00  0.00000000E+00
  0.00000000E+00  0.00000000E+00  0.00000000E+00
  0.00000000E+00  0.00000000E+00  0.00000000E+00
  0.00000000E+00  0.00000000E+00  0.00000000E+00
  0.00000000E+00  0.00000000E+00  0.00000000E+00
  0.00000000E+00  0.00000000E+00  0.00000000E+00
  0.00000000E+00  0.00000000E+00  0.00000000E+00
  0.00000000E+00  0.00000000E+00  0.00000000E+00
  0.00000000E+00  0.00000000E+00  0.00000000E+00
  0.00000000E+00  0.00000000E+00  0.00000000E+00
  0.00000000E+00  0.00000000E+00  0.00000000E+00
  0.00000000E+00  0.00000000E+00  0.00000000E+00
  0.00000000E+00  0.00000000E+00  0.00000000E+00
  0.00000000E+00  0.00000000E+00  0.00000000E+00
  0.00000000E+00  0.00000000E+00  0.00000000E+00
  0.00000000E+00  0.00000000E+00  0.00000000E+00
  0.00000000E+00  0.00000000E+00  0.00000000E+00
  0.00000000E+00  0.00000000E+00  0.00000000E+00
  0.00000000E+00  0.00000000E+00  0.00000000E+00
  0.00000000E+00  0.00000000E+00  0.00000000E+00
  0.00000000E+00  0.00000000E+00  0.00000000E+00
  0.00000000E+00  0.00000000E+00  0.00000000E+00
  0.00000000E+00  0.00000000E+00  0.00000000E+00
  0.00000000E+00  0.00000000E+00  0.00000000E+00
  0.00000000E+00  0.00000000E+00  0.00000000E+00
  0.00000000E+00  0.00000000E+00  0.00000000E+00
  0.00000000E+00  0.00000000E+00  0.00000000E+00
  0.00000000E+00  0.00000000E+00  0.00000000E+00
  0.00000000E+00  0.00000000E+00  0.00000000E+00
  0.00000000E+00  0.00000000E+00  0.00000000E+00
  0.00000000E+00  0.00000000E+00  0.00000000E+00
