KPOINTS from doped, with reciprocal_density = 70/Å⁻³
0
Gamma
4 4 4
