O2
1.0
  30.0100000000000016    0.0000000000000000    0.0000000000000000
   0.0000000000000000   30.0000000000000000    0.0000000000000000
   0.0000000000000000    0.0000000000000000   29.9899999999999984
O
2
direct
   0.4998333888703765    0.5000000000000000    0.5001667222407470 O
   0.4998333888703765    0.5000000000000000    0.5405135045015006 O
