30.0% N(Distort)=1 ~[0.5,0.5,0.5]       
   1.00000000000000     
    12.5998379999999983    0.0000000000000004    0.0000000000000004
     0.0000000000000004   12.5998379999999983   -0.0000000000000004
    -0.0000000000000004   -0.0000000000000004   12.5998379999999983
   Mg   O 
   109   107
Direct
  0.6660346008107295  0.0006542935887366  0.0002096398896892
  0.8324632718594752  0.1670282380122373  0.0002655015534632
  0.8324579135194677  0.0007066915654524  0.1666034099133725
  0.3314215230036063  0.0007125267846820  0.0002198472982917
  0.4986253210560549  0.1664692512167184 -0.0000371816597312
  0.6659134887269268  0.3335753386393443 -0.0009019534602478
  0.8330064535068850  0.5008470346962902 -0.0000247690778393
  0.4985727596839787  0.0004462458851337  0.1660018742060039
  0.6657373857443913  0.1658222939656624  0.1653608625907052
  0.8336184333127953  0.3337011043243281  0.1653990516884341
  0.6658830500497779 -0.0004721475677802  0.3331427128841679
  0.8336077339520664  0.1658344933730748  0.3332881613069266
  0.8329952536783451  0.0003657289132629  0.5003953439060215
 -0.0012280972598361  0.0007197746134063  0.0002424329178434
  0.1650154637009685  0.1669502562977474  0.0003045873170915
  0.3313394367717263  0.3331062904855174 -0.0009681926072122
  0.4985573735441976  0.5009213956061223 -0.0044250714297181
  0.6663931282535518  0.6681194894677360 -0.0009358434421615
  0.8325789441381539  0.8343918398678337  0.0003132854214899
  0.1650498112365163  0.0007985132253539  0.1664577830287482
  0.3314441146357550  0.1670763654826648  0.1665554262437807
  0.4983103458001558  0.3328584618505427  0.1616819830658199
  0.6666128764616758  0.5011705110957498  0.1617017516587075
  0.8323994746673445  0.6679536146111167  0.1665967955489205
  0.3313879164687610 -0.0004362255543045  0.3326184945410866
  0.4983409090229403  0.1622095628865686  0.3323565664122927
  0.6720115623761952  0.3274290572998904  0.3269091644363415
  0.8371921434643220  0.5011292058323129  0.3323832328661680
  0.4985896517954410 -0.0038503716104501  0.5004719859555929
  0.6666251010701130  0.1620861178801960  0.5006939534987860
  0.8373401517166783  0.3328008408451174  0.5006908289798868
  0.6663997232772687 -0.0005065606559722  0.6676026812609152
  0.8324663169705705  0.1669917150763858  0.6674812100978660
  0.8325991544717881  0.0007305207452804  0.8339175731169610
 -0.0011998859879989  0.3334877878833650  0.0002209356781867
  0.1639342075525685  0.5007143537159068 -0.0012741473916043
  0.3312458134147918  0.6681792313056562 -0.0016288233822035
  0.4987451300837000  0.8355509785360485 -0.0012578849733089
 -0.0012278313017248  0.1670481800538275  0.1666142079712753
  0.1645158716886919  0.3332783212298879  0.1663520240568296
  0.3253166896782888  0.5004497165808633  0.1580359010727709
  0.4990080503201862  0.6741463281048916  0.1580566725602281
  0.6661987159018603  0.8349127312487404  0.1663469609357113
 -0.0011740396415301  0.0006554500532748  0.3330485920696955
  0.1645958419335979  0.1668174822281708  0.3328282729676431
  0.3301538131984602  0.3337308477368341  0.3332279304578445
  0.4808341012131781  0.5186024623823768  0.2975975263729632
  0.6657193214791407  0.6693271837385238  0.3332273371403189
  0.8326578253884916  0.8348510250301526  0.3328094235215153
  0.1640438587972846 -0.0007529651467827  0.5002454083695255
  0.3255953482194613  0.1587204880774765  0.4999933248701746
  0.4814645434805017  0.2985876806330781  0.5181107541649701
  0.7009028303445246  0.5180787055884793  0.5181724222750302
  0.8407732756528360  0.6739155824352964  0.4999685552037542
  0.3313148034701425 -0.0011117232813448  0.6677100865538342
  0.4990358759526650  0.1586231834706227  0.6736392246026838
  0.6657810559285329  0.3336899020695702  0.6690637075907696
  0.8408739169685839  0.5004226042543631  0.6736119720992875
  0.4987490085427728 -0.0007888749020487  0.8350437366651606
  0.6662453336328196  0.1667464719554457  0.8344378007592569
  0.8327242685949475  0.3332381947281898  0.8344263384334104
  0.9987455768092788  0.6680018501802973  0.0002173139493145
  0.1650255075519209  0.8344048590355168 -0.0000692247683929
 -0.0009943881089886  0.5008544260149519  0.1660419037411498
  0.1644838751494898  0.6682453308732397  0.1657967924387955
  0.3311701835199175  0.8349262957401794  0.1657867011074322
 -0.0000912760149902  0.3335925184092271  0.3331717219316633
  0.1635980954013412  0.5009761342514830  0.3317227069100286
  0.3281569398523999  0.6712670944884326  0.3329749201082333
  0.4984635189872950  0.8358773072176727  0.3316774083510130
 -0.0008992518200034  0.1664729244096270  0.5003860500912989
  0.1637013419281117  0.3321815367886175  0.5005059762886352
  0.3214844989909459  0.5012501671607992  0.5007818947853668
  0.4982143592823530  0.6780042091306584  0.5007699725047643
  0.6672856351785187  0.8358065035270184  0.5005008259485272
 -0.0011727950066175  0.0006663634665048  0.6674957078173036
  0.1646153905427191  0.1662852700323384  0.6677639096601621
  0.3283387108854199  0.3334534942688289  0.6707219836355007
  0.4982768339977764  0.5011989959228795  0.6775992417505160
  0.6660105299639488  0.6711613959877298  0.6707562440299664
  0.8332043728268061  0.8348529110530927  0.6677431855597122
  0.1650642287583869  0.0004234450253372  0.8339188706088992
  0.3312074071973589  0.1662787173902252  0.8344437793000345
  0.4984908618384266  0.3321276316070526  0.8354335965850592
  0.6673408235429437  0.5009854492486371  0.8354460453166259
  0.8332155882178153  0.6682389457671855  0.8344506449289407
 -0.0013211467079529  0.8344069793504489  0.1664718126738205
 -0.0000925880348967  0.6680504413346438  0.3326421617414078
  0.1645558659967722  0.8349067073075658  0.3327913975264064
  0.0033194997657350  0.5008607504190591  0.5004587635506620
  0.1645907984078306  0.6687981891227281  0.5003067283895337
  0.3306468672890617  0.8348585130881595  0.5002875871781021
 -0.0000029051493872  0.3330571876381702  0.6675807586227707
  0.1646417917729815  0.5007391295066855  0.6683213429912366
  0.3317863832224641  0.6676507140508094  0.6671720936904069
  0.4986917258788082  0.8348397889746637  0.6683428126619027
 -0.0012784459361998  0.1669065683944336  0.8339429377644351
  0.1645806182497227  0.3332532860922082  0.8343834876763959
  0.3306263848481494  0.5007782468499409  0.8343394280798048
  0.4986811678807858  0.6688609899473427  0.8343640914493212
  0.6662330652059513  0.8348811808396168  0.8343973723819980
  0.0002116770288843  0.8354604594665249  0.5002349132103340
  0.0005859762766406  0.6681653207257160  0.6677027197105281
  0.1654148668361618  0.8340496068238866  0.6674048559863437
  0.0002643892725121  0.5007042511103985  0.8350302040683542
  0.1653701750125572  0.6679072003228848  0.8335499873427772
  0.3315186267602944  0.8340478053639373  0.8335690661347396
 -0.0009332668218826  0.8344048515085271  0.8338973056137537
  0.5561690798202643  0.4433736008224526  0.4421178092260044
  0.8312382133585007  0.1682071788770638  0.1677832598298188
 -0.0015657916788534  0.3342770126219246  0.1673460099781321
 -0.0015512202116435  0.1677828428331639  0.3338319174840410
  0.4989082807111162  0.1692095422915202  0.1687004014090223
  0.6640379303727976  0.3353962155148076  0.1675275261166136
  0.8302191818254955  0.5005102017309886  0.1687057754774008
 -0.0016851965282995  0.6671590489052148  0.1670912018373675
  0.6639921458177684  0.1680834271422626  0.3350257061190896
  0.8313415005080319  0.3354334912194310  0.3350246424740042
 -0.0000552225199882  0.5006500180543366  0.3328941828395782
  0.8301844007757613  0.1692044653761317  0.5000581852742312
  0.0000191428243000  0.3333121765174115  0.5001934143177680
 -0.0016039262923419  0.1675532950902968  0.6666416956039429
  0.1657170632259331  0.1678533801581318  0.1673575392299219
  0.3334939953720681  0.3354493535425344  0.1677630227423534
  0.4983926748996913  0.5010862464227011  0.1540345354586614
  0.6640015294039057  0.6659354879527010  0.1677685955295798
  0.8316317134661585  0.8336915163581635  0.1673768935164078
 -0.0014701663107575  0.0009446083489190  0.1670989811897303
  0.3335767552548617  0.1683074667539669  0.3349141355452550
  0.4983510585851451  0.3431669247724879  0.3422650123882585
  0.6563370100223014  0.5011028064069774  0.3422705583205519
  0.8311420297612375  0.6658599260671645  0.3349427266520186
  0.9985104562871080  0.8339775304069610  0.3335832530410521
  0.4984755191914132  0.1548091750632214  0.5005582068786492
  0.6559953593555192  0.3433925071727760  0.5006608907472831
  0.8446250101867119  0.5009408450853420  0.5005683687529898
  0.0011830675482801  0.6683319384604965  0.5000696311991101
  0.6640832719708338  0.1682770754425348  0.6654143899723833
  0.8311779120245978  0.3353724919150118  0.6654120558877609
  0.0012214222958100  0.5004791457552527  0.6679037023402018
  0.8316769727422246  0.1677999488158252  0.8332095580564198
 -0.0014591934526342  0.3340380577509980  0.8334710033683118
 -0.0014789115769294  0.1675650543642209  0.0004760933060075
  0.1648111269741685  0.5006689536818909  0.1661731904205356
  0.3334085741382662  0.6660096628087314  0.1666990945001450
  0.4987792414200954  0.8346310997269123  0.1661491252563795
  0.6651997884169998  0.0010256213855700  0.1673125987153266
  0.1663189602123686  0.3344240523906271  0.3339718745955407
  0.3318726261968585  0.5017820829930653  0.3339977323831226
  0.4976467488029054  0.6675751439525744  0.3339774645314621
  0.6650223002346611  0.8331392326364870  0.3339406607301235
  0.8316849242200969  0.0009967225550003  0.3338130748320983
  0.1649708253704619  0.1666770531622231  0.5001904092462647
  0.3321991027131618  0.3345476075643088  0.5012770842131499
  0.6648894321757760  0.6673244497669534  0.5012736715376936
  0.8327648884725786  0.8345286123082674  0.5001500898458765
 -0.0015157798421103  0.0010077609335901  0.5001425628949102
  0.3335007259179764  0.1672131012031274  0.6655338649110369
  0.4977639389617717  0.3344461873973201  0.6673098960529070
  0.6650454903439058  0.5017052957378052  0.6673278107757324
  0.8322623219838708  0.6659506430960793  0.6655155624751978
 -0.0010235413226392  0.8339171940925199  0.6666963304830733
  0.4988181109698587  0.1666078099588931  0.8341682875927912
  0.6651072186385550  0.3343788846070579  0.8327783534255865
  0.8328709224056039  0.5006587829758778  0.8341581558813336
 -0.0010399098968313  0.6672324520228099  0.8334266308774247
  0.6652249992756568  0.1677490823810003  0.0005339444908564
  0.8317139041835035  0.3342573238179275  0.0005307527405478
 -0.0015540910235302  0.5006413906321949  0.0005302783366445
  0.1655517262010997  0.8338730019317070  0.1668545963887887
  0.3322588073429842  0.0011320936379429  0.1670528323300646
  0.1655995006019549  0.6672971882614596  0.3334025374847307
  0.3321437650174670  0.8338433121562835  0.3333677875100318
  0.4987954263406361 -0.0005000569333578  0.3328711628217331
  0.1646844465972081  0.5003473939641344  0.4998825180637139
  0.3348739807206054  0.6645804153263939  0.4994757084473280
  0.4990811405631242  0.8347726782142597  0.4998779202181658
  0.6661171348341433 -0.0005696407825430  0.5002275514374126
  0.1657068885443105  0.3338755925041652  0.6667562989604945
  0.3349046196746734  0.4999626257795914  0.6640913527104589
  0.4994890370639191  0.6645551101104346  0.6641211015869225
  0.6655846819318063  0.8337581292736915  0.6667729813546659
  0.8319529648497253  0.0010764240288869  0.6666527893332701
  0.1655867521476077  0.1673698918776697  0.8333611964547700
  0.3321601720427620  0.3338935886173082  0.8333267307342646
  0.4990682577038920  0.5003884686409921  0.8343591820595313
  0.6655921575868452  0.6673155698391318  0.8333507262221403
  0.8321392095697770  0.8338522545581238  0.8333598383423053
 -0.0013300015420461  0.0008263149510397  0.8335476462492923
  0.3322508928175368  0.1675876473332767  0.0006132508368267
  0.4987835644652233  0.3333354874351179 -0.0010171552973297
  0.6661375417862000  0.5007047974653386 -0.0010115459835761
  0.8318962083078647  0.6671661538707603  0.0006408501615463
 -0.0013621386550612  0.8340785894151787  0.0003318602311619
  0.1654856440773914  0.0009737582199142  0.3335716364436316
  0.1659991398338291  0.8334554017402162  0.4999593419567943
  0.3311615498497627 -0.0017118909718486  0.5000577597579180
  0.1666001344973118  0.6667330208972430  0.6662552039805772
  0.3326991631529944  0.8328316720676588  0.6662467966523632
  0.4989426233554353 -0.0017393978233023  0.6679267529142610
  0.1659734936932647  0.5004431663108428  0.8329382692601900
  0.3326515722986172  0.6667659165031239  0.8323294638360674
  0.4989929667134620  0.8334739650244994  0.8329740673329836
  0.6654532273084797  0.0009240517032946  0.8334821441868970
  0.1654374666200246  0.3340788697146045  0.0004494682508458
  0.3310376846768935  0.5005738655844816 -0.0022857941914100
  0.4988995788509669  0.6684441472862158 -0.0022745206153434
  0.6654295003465258  0.8339956995449188  0.0004572023067132
  0.8319481303676248  0.0009257251736376  0.0004584610118984
  0.1655607623881946  0.0004919618139056  0.6667058633049211
  0.1656087517601232  0.8338237064647035  0.8333124458350705
  0.3322153287704819  0.0004772658754041  0.8334413382977295
  0.1654894366395399  0.6672295382432545 -0.0000184004567146
  0.3321978524129796  0.8339268856935633 -0.0000143562750966
  0.4988275237763049  0.0010089720085076  0.0005143971635179
  0.1653742102264872  0.0008348225492855  0.0003278227146587
 
  0.00000000E+00  0.00000000E+00  0.00000000E+00
  0.00000000E+00  0.00000000E+00  0.00000000E+00
  0.00000000E+00  0.00000000E+00  0.00000000E+00
  0.00000000E+00  0.00000000E+00  0.00000000E+00
  0.00000000E+00  0.00000000E+00  0.00000000E+00
  0.00000000E+00  0.00000000E+00  0.00000000E+00
  0.00000000E+00  0.00000000E+00  0.00000000E+00
  0.00000000E+00  0.00000000E+00  0.00000000E+00
  0.00000000E+00  0.00000000E+00  0.00000000E+00
  0.00000000E+00  0.00000000E+00  0.00000000E+00
  0.00000000E+00  0.00000000E+00  0.00000000E+00
  0.00000000E+00  0.00000000E+00  0.00000000E+00
  0.00000000E+00  0.00000000E+00  0.00000000E+00
  0.00000000E+00  0.00000000E+00  0.00000000E+00
  0.00000000E+00  0.00000000E+00  0.00000000E+00
  0.00000000E+00  0.00000000E+00  0.00000000E+00
  0.00000000E+00  0.00000000E+00  0.00000000E+00
  0.00000000E+00  0.00000000E+00  0.00000000E+00
  0.00000000E+00  0.00000000E+00  0.00000000E+00
  0.00000000E+00  0.00000000E+00  0.00000000E+00
  0.00000000E+00  0.00000000E+00  0.00000000E+00
  0.00000000E+00  0.00000000E+00  0.00000000E+00
  0.00000000E+00  0.00000000E+00  0.00000000E+00
  0.00000000E+00  0.00000000E+00  0.00000000E+00
  0.00000000E+00  0.00000000E+00  0.00000000E+00
  0.00000000E+00  0.00000000E+00  0.00000000E+00
  0.00000000E+00  0.00000000E+00  0.00000000E+00
  0.00000000E+00  0.00000000E+00  0.00000000E+00
  0.00000000E+00  0.00000000E+00  0.00000000E+00
  0.00000000E+00  0.00000000E+00  0.00000000E+00
  0.00000000E+00  0.00000000E+00  0.00000000E+00
  0.00000000E+00  0.00000000E+00  0.00000000E+00
  0.00000000E+00  0.00000000E+00  0.00000000E+00
  0.00000000E+00  0.00000000E+00  0.00000000E+00
  0.00000000E+00  0.00000000E+00  0.00000000E+00
  0.00000000E+00  0.00000000E+00  0.00000000E+00
  0.00000000E+00  0.00000000E+00  0.00000000E+00
  0.00000000E+00  0.00000000E+00  0.00000000E+00
  0.00000000E+00  0.00000000E+00  0.00000000E+00
  0.00000000E+00  0.00000000E+00  0.00000000E+00
  0.00000000E+00  0.00000000E+00  0.00000000E+00
  0.00000000E+00  0.00000000E+00  0.00000000E+00
  0.00000000E+00  0.00000000E+00  0.00000000E+00
  0.00000000E+00  0.00000000E+00  0.00000000E+00
  0.00000000E+00  0.00000000E+00  0.00000000E+00
  0.00000000E+00  0.00000000E+00  0.00000000E+00
  0.00000000E+00  0.00000000E+00  0.00000000E+00
  0.00000000E+00  0.00000000E+00  0.00000000E+00
  0.00000000E+00  0.00000000E+00  0.00000000E+00
  0.00000000E+00  0.00000000E+00  0.00000000E+00
  0.00000000E+00  0.00000000E+00  0.00000000E+00
  0.00000000E+00  0.00000000E+00  0.00000000E+00
  0.00000000E+00  0.00000000E+00  0.00000000E+00
  0.00000000E+00  0.00000000E+00  0.00000000E+00
  0.00000000E+00  0.00000000E+00  0.00000000E+00
  0.00000000E+00  0.00000000E+00  0.00000000E+00
  0.00000000E+00  0.00000000E+00  0.00000000E+00
  0.00000000E+00  0.00000000E+00  0.00000000E+00
  0.00000000E+00  0.00000000E+00  0.00000000E+00
  0.00000000E+00  0.00000000E+00  0.00000000E+00
  0.00000000E+00  0.00000000E+00  0.00000000E+00
  0.00000000E+00  0.00000000E+00  0.00000000E+00
  0.00000000E+00  0.00000000E+00  0.00000000E+00
  0.00000000E+00  0.00000000E+00  0.00000000E+00
  0.00000000E+00  0.00000000E+00  0.00000000E+00
  0.00000000E+00  0.00000000E+00  0.00000000E+00
  0.00000000E+00  0.00000000E+00  0.00000000E+00
  0.00000000E+00  0.00000000E+00  0.00000000E+00
  0.00000000E+00  0.00000000E+00  0.00000000E+00
  0.00000000E+00  0.00000000E+00  0.00000000E+00
  0.00000000E+00  0.00000000E+00  0.00000000E+00
  0.00000000E+00  0.00000000E+00  0.00000000E+00
  0.00000000E+00  0.00000000E+00  0.00000000E+00
  0.00000000E+00  0.00000000E+00  0.00000000E+00
  0.00000000E+00  0.00000000E+00  0.00000000E+00
  0.00000000E+00  0.00000000E+00  0.00000000E+00
  0.00000000E+00  0.00000000E+00  0.00000000E+00
  0.00000000E+00  0.00000000E+00  0.00000000E+00
  0.00000000E+00  0.00000000E+00  0.00000000E+00
  0.00000000E+00  0.00000000E+00  0.00000000E+00
  0.00000000E+00  0.00000000E+00  0.00000000E+00
  0.00000000E+00  0.00000000E+00  0.00000000E+00
  0.00000000E+00  0.00000000E+00  0.00000000E+00
  0.00000000E+00  0.00000000E+00  0.00000000E+00
  0.00000000E+00  0.00000000E+00  0.00000000E+00
  0.00000000E+00  0.00000000E+00  0.00000000E+00
  0.00000000E+00  0.00000000E+00  0.00000000E+00
  0.00000000E+00  0.00000000E+00  0.00000000E+00
  0.00000000E+00  0.00000000E+00  0.00000000E+00
  0.00000000E+00  0.00000000E+00  0.00000000E+00
  0.00000000E+00  0.00000000E+00  0.00000000E+00
  0.00000000E+00  0.00000000E+00  0.00000000E+00
  0.00000000E+00  0.00000000E+00  0.00000000E+00
  0.00000000E+00  0.00000000E+00  0.00000000E+00
  0.00000000E+00  0.00000000E+00  0.00000000E+00
  0.00000000E+00  0.00000000E+00  0.00000000E+00
  0.00000000E+00  0.00000000E+00  0.00000000E+00
  0.00000000E+00  0.00000000E+00  0.00000000E+00
  0.00000000E+00  0.00000000E+00  0.00000000E+00
  0.00000000E+00  0.00000000E+00  0.00000000E+00
  0.00000000E+00  0.00000000E+00  0.00000000E+00
  0.00000000E+00  0.00000000E+00  0.00000000E+00
  0.00000000E+00  0.00000000E+00  0.00000000E+00
  0.00000000E+00  0.00000000E+00  0.00000000E+00
  0.00000000E+00  0.00000000E+00  0.00000000E+00
  0.00000000E+00  0.00000000E+00  0.00000000E+00
  0.00000000E+00  0.00000000E+00  0.00000000E+00
  0.00000000E+00  0.00000000E+00  0.00000000E+00
  0.00000000E+00  0.00000000E+00  0.00000000E+00
  0.00000000E+00  0.00000000E+00  0.00000000E+00
  0.00000000E+00  0.00000000E+00  0.00000000E+00
  0.00000000E+00  0.00000000E+00  0.00000000E+00
  0.00000000E+00  0.00000000E+00  0.00000000E+00
  0.00000000E+00  0.00000000E+00  0.00000000E+00
  0.00000000E+00  0.00000000E+00  0.00000000E+00
  0.00000000E+00  0.00000000E+00  0.00000000E+00
  0.00000000E+00  0.00000000E+00  0.00000000E+00
  0.00000000E+00  0.00000000E+00  0.00000000E+00
  0.00000000E+00  0.00000000E+00  0.00000000E+00
  0.00000000E+00  0.00000000E+00  0.00000000E+00
  0.00000000E+00  0.00000000E+00  0.00000000E+00
  0.00000000E+00  0.00000000E+00  0.00000000E+00
  0.00000000E+00  0.00000000E+00  0.00000000E+00
  0.00000000E+00  0.00000000E+00  0.00000000E+00
  0.00000000E+00  0.00000000E+00  0.00000000E+00
  0.00000000E+00  0.00000000E+00  0.00000000E+00
  0.00000000E+00  0.00000000E+00  0.00000000E+00
  0.00000000E+00  0.00000000E+00  0.00000000E+00
  0.00000000E+00  0.00000000E+00  0.00000000E+00
  0.00000000E+00  0.00000000E+00  0.00000000E+00
  0.00000000E+00  0.00000000E+00  0.00000000E+00
  0.00000000E+00  0.00000000E+00  0.00000000E+00
  0.00000000E+00  0.00000000E+00  0.00000000E+00
  0.00000000E+00  0.00000000E+00  0.00000000E+00
  0.00000000E+00  0.00000000E+00  0.00000000E+00
  0.00000000E+00  0.00000000E+00  0.00000000E+00
  0.00000000E+00  0.00000000E+00  0.00000000E+00
  0.00000000E+00  0.00000000E+00  0.00000000E+00
  0.00000000E+00  0.00000000E+00  0.00000000E+00
  0.00000000E+00  0.00000000E+00  0.00000000E+00
  0.00000000E+00  0.00000000E+00  0.00000000E+00
  0.00000000E+00  0.00000000E+00  0.00000000E+00
  0.00000000E+00  0.00000000E+00  0.00000000E+00
  0.00000000E+00  0.00000000E+00  0.00000000E+00
  0.00000000E+00  0.00000000E+00  0.00000000E+00
  0.00000000E+00  0.00000000E+00  0.00000000E+00
  0.00000000E+00  0.00000000E+00  0.00000000E+00
  0.00000000E+00  0.00000000E+00  0.00000000E+00
  0.00000000E+00  0.00000000E+00  0.00000000E+00
  0.00000000E+00  0.00000000E+00  0.00000000E+00
  0.00000000E+00  0.00000000E+00  0.00000000E+00
  0.00000000E+00  0.00000000E+00  0.00000000E+00
  0.00000000E+00  0.00000000E+00  0.00000000E+00
  0.00000000E+00  0.00000000E+00  0.00000000E+00
  0.00000000E+00  0.00000000E+00  0.00000000E+00
  0.00000000E+00  0.00000000E+00  0.00000000E+00
  0.00000000E+00  0.00000000E+00  0.00000000E+00
  0.00000000E+00  0.00000000E+00  0.00000000E+00
  0.00000000E+00  0.00000000E+00  0.00000000E+00
  0.00000000E+00  0.00000000E+00  0.00000000E+00
  0.00000000E+00  0.00000000E+00  0.00000000E+00
  0.00000000E+00  0.00000000E+00  0.00000000E+00
  0.00000000E+00  0.00000000E+00  0.00000000E+00
  0.00000000E+00  0.00000000E+00  0.00000000E+00
  0.00000000E+00  0.00000000E+00  0.00000000E+00
  0.00000000E+00  0.00000000E+00  0.00000000E+00
  0.00000000E+00  0.00000000E+00  0.00000000E+00
  0.00000000E+00  0.00000000E+00  0.00000000E+00
  0.00000000E+00  0.00000000E+00  0.00000000E+00
  0.00000000E+00  0.00000000E+00  0.00000000E+00
  0.00000000E+00  0.00000000E+00  0.00000000E+00
  0.00000000E+00  0.00000000E+00  0.00000000E+00
  0.00000000E+00  0.00000000E+00  0.00000000E+00
  0.00000000E+00  0.00000000E+00  0.00000000E+00
  0.00000000E+00  0.00000000E+00  0.00000000E+00
  0.00000000E+00  0.00000000E+00  0.00000000E+00
  0.00000000E+00  0.00000000E+00  0.00000000E+00
  0.00000000E+00  0.00000000E+00  0.00000000E+00
  0.00000000E+00  0.00000000E+00  0.00000000E+00
  0.00000000E+00  0.00000000E+00  0.00000000E+00
  0.00000000E+00  0.00000000E+00  0.00000000E+00
  0.00000000E+00  0.00000000E+00  0.00000000E+00
  0.00000000E+00  0.00000000E+00  0.00000000E+00
  0.00000000E+00  0.00000000E+00  0.00000000E+00
  0.00000000E+00  0.00000000E+00  0.00000000E+00
  0.00000000E+00  0.00000000E+00  0.00000000E+00
  0.00000000E+00  0.00000000E+00  0.00000000E+00
  0.00000000E+00  0.00000000E+00  0.00000000E+00
  0.00000000E+00  0.00000000E+00  0.00000000E+00
  0.00000000E+00  0.00000000E+00  0.00000000E+00
  0.00000000E+00  0.00000000E+00  0.00000000E+00
  0.00000000E+00  0.00000000E+00  0.00000000E+00
  0.00000000E+00  0.00000000E+00  0.00000000E+00
  0.00000000E+00  0.00000000E+00  0.00000000E+00
  0.00000000E+00  0.00000000E+00  0.00000000E+00
  0.00000000E+00  0.00000000E+00  0.00000000E+00
  0.00000000E+00  0.00000000E+00  0.00000000E+00
  0.00000000E+00  0.00000000E+00  0.00000000E+00
  0.00000000E+00  0.00000000E+00  0.00000000E+00
  0.00000000E+00  0.00000000E+00  0.00000000E+00
  0.00000000E+00  0.00000000E+00  0.00000000E+00
  0.00000000E+00  0.00000000E+00  0.00000000E+00
  0.00000000E+00  0.00000000E+00  0.00000000E+00
  0.00000000E+00  0.00000000E+00  0.00000000E+00
  0.00000000E+00  0.00000000E+00  0.00000000E+00
  0.00000000E+00  0.00000000E+00  0.00000000E+00
  0.00000000E+00  0.00000000E+00  0.00000000E+00
  0.00000000E+00  0.00000000E+00  0.00000000E+00
  0.00000000E+00  0.00000000E+00  0.00000000E+00
  0.00000000E+00  0.00000000E+00  0.00000000E+00
  0.00000000E+00  0.00000000E+00  0.00000000E+00
  0.00000000E+00  0.00000000E+00  0.00000000E+00
  0.00000000E+00  0.00000000E+00  0.00000000E+00
  0.00000000E+00  0.00000000E+00  0.00000000E+00
  0.00000000E+00  0.00000000E+00  0.00000000E+00
  0.00000000E+00  0.00000000E+00  0.00000000E+00
