pymatgen with grid density = 599 / number of atoms
0
Gamma
7 7 4
