10.0% N(Distort)=4 ~[0.5,0.5,0.5]       
   1.00000000000000     
    12.5998379999999983    0.0000000000000004    0.0000000000000004
     0.0000000000000004   12.5998379999999983   -0.0000000000000004
    -0.0000000000000004   -0.0000000000000004   12.5998379999999983
   Mg   O 
   109   107
Direct
  0.6662997348726055  0.0007329516960236 -0.0002059027290073
  0.8328098846316455  0.1671242068992209 -0.0001367313895122
  0.8328033598625104  0.0007877067192075  0.1661984965238994
  0.3320331742481815  0.0006421205735144 -0.0002910754449498
  0.4990085596617272  0.1666784942864896 -0.0003297126624257
  0.6661517315973823  0.3337694185609842  0.9988995401705335
  0.8332433258386064  0.5009207512204424  0.9996404597580544
  0.4990148509549829  0.0005968045463149  0.1657517877840739
  0.6660943104646310  0.1660632625702084  0.1651329526070149
  0.8338462523466960  0.3338542034286159  0.1651447776348355
  0.6661668833347477 -0.0001862833065509  0.3328395869881130
  0.8338441523722524  0.1660817120261543  0.3329381916293910
  0.8332674098936852  0.0005239463731470  0.4999856180585652
 -0.0007822338154798  0.0006832195728194 -0.0002485765891100
  0.1655126982196722  0.1669599324061033 -0.0001546240752970
  0.3319277468310407  0.3332075535302879 -0.0012513433171548
  0.4989938661992259  0.5009100077241052  0.9952393911026656
  0.6667162975474639  0.6679984632339216 -0.0013317856267420
  0.8329596118551225  0.8344074860004360 -0.0001658752500615
  0.1654885689008025  0.0007892531028356  0.1660313401015861
  0.3319225447141134  0.1671154403063979  0.1662068673547202
  0.4987718749303636  0.3332891908378317  0.1628743001118864
  0.6666283919013887  0.5011734681392990  0.1627838835384335
  0.8327895704769691  0.6679975076811342  0.1661869642920910
  0.3319211826264086 -0.0003099283616743  0.3322850504206966
  0.4987793457749424  0.1637628895129858  0.3324032672486500
  0.6719122332079045  0.3279626744536064  0.3270470224060216
  0.8361528063653075  0.5011433078063006  0.3323776562041094
  0.4989987655166758  0.9961671404687493  0.4999941340417514
  0.6666373265420801  0.1637066471073363  0.5002530954380159
  0.8361557506713581  0.3332563509406140  0.5002276803079553
  0.6667381184103848 -0.0003561381462626  0.6670494344530153
  0.8328278342226738  0.1670649121296156  0.6670719999503832
  0.8329667588839803  0.0007404013756000  0.8334958352706784
 -0.0007805788333153  0.3336242608634566 -0.0001914509269637
  0.1646337518590483  0.5007179369312871 -0.0018196469945174
  0.3318693344194392  0.6680460688896898 -0.0021722532870796
  0.4992199220776943  0.8353025763543933 -0.0018656629106339
 -0.0008454565426643  0.1671251784939563  0.1662002765210216
  0.1650435285089911  0.3334005662475784  0.1659664349428352
  0.3260422088334067  0.5005669651254280  0.1584676303209837
  0.4993768794960494  0.6739771335267553  0.1583879670312192
  0.6665299888656600  0.8349145540667353  0.1659194773205554
 -0.0007880832348201  0.0007312638215297  0.3326995424988045
  0.1650474848017427  0.1668812770945045  0.3324927630883168
  0.3309144804972181  0.3338096771653493  0.3329187771870713
  0.4806614849209888  0.5195592557387833  0.3003638729589092
  0.6661291091371226  0.6691326397336090  0.3328686106303302
  0.8330546298268189  0.8349046716561188  0.3324403734116046
  0.1646065082894522 -0.0008992259731135  0.4997848667174922
  0.3260203657806808  0.1593363545263905  0.4996934247116487
  0.4806073236400924  0.3012747788711490  0.5185279720270600
  0.6984502454153293  0.5192793329895654  0.5182978503848843
  0.8404994751232928  0.6738798889760960  0.4996559444100827
  0.3318644725254200 -0.0012670851996660  0.6671159173011666
  0.4994022900602951  0.1593378224922533  0.6730092541622440
  0.6661118376712083  0.3337659847367073  0.6681431862753664
  0.8404844716778742  0.5005074115874959  0.6729083369045835
  0.4992200904596233 -0.0008921335300933  0.8343532701081882
  0.6665457573687725  0.1668580683751698  0.8339566149042239
  0.8330408087125072  0.3333664858888060  0.8339588987144825
 -0.0007166388960374  0.6678776777116722 -0.0002905486374158
  0.1656205825445043  0.8342931655388667 -0.0006385768305824
 -0.0006515221483626  0.5008972364452444  0.1657869985063370
  0.1650235350037856  0.6682141889412330  0.1652443441158322
  0.3317349359922658  0.8349293885648768  0.1652413076575378
  0.0001169082802469  0.3337531512930798  0.3328609677379464
  0.1646802777027097  0.5009519475144460  0.3316841412962261
  0.3284907003175134  0.6714855131093938  0.3323329203730049
  0.4989570270127135  0.8353104926885945  0.3316460255398486
  0.9993450681899911  0.1666558755689353  0.4999911804711115
  0.1646452306490597  0.3325956307328594  0.5000424820142612
  0.3292597773587601  0.5006559400526052  0.4997562140174713
  0.4992413963418126  0.6706702596404687  0.4997213011023890
  0.6672955721894301  0.8352728322152178  0.5000058916473576
  0.9993036022367773  0.0005854806399347  0.6669609718871506
  0.1649993727490878  0.1661810981037700  0.6672896811984701
  0.3284838396533942  0.3332516138297775  0.6705019653834329
  0.4992716476367886  0.5006202727521414  0.6697466752779514
  0.6666493274696098  0.6713981330875551  0.6704343322798915
  0.8337234544117038  0.8348777123552573  0.6672524164854172
  0.1656338698228518  0.0002799126797330  0.8333660576523604
  0.3317194039950086  0.1661863238254309  0.8339676925092676
  0.4989421811167317  0.3325475892080768  0.8343812794746377
  0.6673016158687156  0.5008987082597658  0.8343038534890018
  0.8337030736337366  0.6681837189774325  0.8339332763826646
  0.9991356116515163  0.8344435219727905  0.1660191363483320
  0.0002297888409233  0.6679706361172753  0.3322820937868483
  0.1650492832045742  0.8348740363008902  0.3323951718645867
  0.0037019341144194  0.5008871247399189  0.4999861652946693
  0.1661379951889758  0.6679753812683468  0.4997359464998051
  0.3319084759423029  0.8337582067209669  0.4997315356791061
  0.0002205225079370  0.3331826906282991  0.6670251601240718
  0.1661395526477087  0.5006526198387193  0.6670603300206023
  0.3326941319655395  0.6671995448628379  0.6663016166854518
  0.4992593655268386  0.8337468364350997  0.6670444954512241
 -0.0008501224861930  0.1669361347072325  0.8335012562979336
  0.1650510829262997  0.3333461246559988  0.8339182988715848
  0.3319122972599482  0.5006393759840490  0.8328368033828935
  0.4992501031338201  0.6679573545395026  0.8328124148262478
  0.6665808313555680  0.8348498357676588  0.8338826921365634
  0.0008081602554174  0.8352877329542918  0.4997780805976334
  0.0011136480530810  0.6680138876730222  0.6670977530428790
  0.1660981064154479  0.8337738498207308  0.6667292043500451
  0.0007689649938727  0.5006975870808658  0.8343412662900788
  0.1660871502053535  0.6676316749377633  0.8328785752498129
  0.3322776421795999  0.8338010213381437  0.8328832894968178
 -0.0003946282427019  0.8342556593540276  0.8333436742068773
  0.5556119346263297  0.4440710833627294  0.4431407252888040
  0.8319770825670366  0.1679612592900322  0.1670002490596736
 -0.0010630379741790  0.3342409303907060  0.1666483999849041
 -0.0010608484145056  0.1676088797485134  0.3332659503715324
  0.4992167951749807  0.1687462107130925  0.1678071407885152
  0.6649402713979531  0.3349980464783353  0.1665695459502984
  0.8311557353034474  0.5007107616474008  0.1678031003296575
 -0.0011123351890076  0.6674141562250419  0.1663770666481023
  0.6649538786809339  0.1675063780909930  0.3340442211355191
  0.8323842724386226  0.3349819830940415  0.3340360921612888
  0.0002858672350621  0.5007939484242615  0.3325726060308173
  0.8312011352686114  0.1686998531110286  0.4997750754187038
  0.0002551060370553  0.3334995082652064  0.4998584077766926
 -0.0010990329501132  0.1673074196215815  0.6664646323552078
  0.1659004907111224  0.1676223200652816  0.1666539407142001
  0.3333643866416970  0.3349472046269693  0.1668140681170144
  0.4983041329782749  0.5016567619055586  0.1549096211845633
  0.6649784010330503  0.6665912490988668  0.1667294621272024
  0.8323260769964247  0.8340342476101241  0.1666330557970084
 -0.0009913862402095  0.0009331633334891  0.1664836909128890
  0.3333516976010437  0.1677218703965040  0.3340673582964340
  0.4994735510092373  0.3406613143745433  0.3398529752409286
  0.6590185771563526  0.5004993471041577  0.3399102143637502
  0.8321824472154558  0.6665609641246123  0.3340046109420470
 -0.0009382541303633  0.8341859148528658  0.3330189663726189
  0.4983103187681227  0.1558460712680070  0.5007331239830718
  0.6590179701301891  0.3407691251715725  0.4995680363839263
  0.8439589013645973  0.5015777347252015  0.5006713220766409
  0.0018343830058809  0.6683229145566278  0.4996639143288582
  0.6649977334209523  0.1676717216770323  0.6656193493789127
  0.8321823763639810  0.3348849009635751  0.6656052763387064
  0.0018186116212313  0.5005856880944960  0.6673823899937770
  0.8323373320975761  0.1675880836988972  0.8330819344686984
 -0.0009447074259912  0.3339817008044345  0.8332180665588923
 -0.0009925526020744  0.1674651787724842 -0.0000442730411065
  0.1647990998287406  0.5007624233135738  0.1651559392861625
  0.3330976307933832  0.6668422744583233  0.1654791395430698
  0.4991618775989791  0.8351745640346864  0.1651035322514896
  0.6656964296733633  0.0010063272914729  0.1666430402772297
  0.1662950071942230  0.3340864308438429  0.3331358143250743
  0.3297620750317303  0.5019918602019140  0.3303677307781053
  0.4979400034875256  0.6703683278348818  0.3303172960399155
  0.6658517061298540  0.8336711670927723  0.3331001057200591
  0.8323291349996162  0.0010084444009440  0.3332534347938385
  0.1647757820998348  0.1661008919803884  0.4998427115532069
  0.3296931254576946  0.3313004233270643  0.5010699657503481
  0.6686192529464378  0.6702552508785313  0.5010326091710000
  0.8338260789276594  0.8351340212137771  0.4998000543004232
  0.9990230267128518  0.0009041901117039  0.4997652868951079
  0.3331117008726728  0.1664176106397156  0.6658633646504428
  0.4979106335813721  0.3312326334072282  0.6693933179975399
  0.6686603839047304  0.5019598734523669  0.6692905839315018
  0.8334585780053456  0.6667861615255486  0.6658464879866071
 -0.0003080542684538  0.8339797700117809  0.6663632442658238
  0.4991543955450649  0.1660563459985490  0.8342317102357302
  0.6658433127573152  0.3340284656955890  0.8326886677212445
  0.8338120073201247  0.5007356422644759  0.8341834083506826
 -0.0003317210658849  0.6673135494060313  0.8330633788028990
  0.6656941533088415  0.1676257466138781  0.0000385610181311
  0.8323214827061644  0.3342348908111506  0.0000426340006651
 -0.0009925090142246  0.5007229712744740 -0.0000283631097514
  0.1658227932188168  0.8341027230275296  0.1660982349737200
  0.3324988167868143  0.0010415376707873  0.1663695737306132
  0.1656470986577209  0.6677331061045578  0.3325222748413004
  0.3321522702539353  0.8343088752252275  0.3325233319472851
  0.4991140177293159 -0.0003577711298294  0.3325637700353455
  0.1670197148008423  0.5002675763576296  0.4993224787418538
  0.3336449330737117  0.6662891561053039  0.4987789436619186
  0.4996193302476758  0.8329058568164613  0.4993159363608674
  0.6664100785461259 -0.0003975023644593  0.4998469642950173
  0.1656326876928194  0.3334751257465866  0.6667934102292381
  0.3336329761717687  0.4997126715663628  0.6653429526030434
  0.5001675145122281  0.6662494387363833  0.6653077701925001
  0.6664013405603821  0.8342586976816548  0.6667726808596902
  0.8326024119549147  0.0009860545223156  0.6664601558472967
  0.1658137489912526  0.1670684633956702  0.8331259980424121
  0.3321493219379840  0.3334661389183672  0.8333336125154310
  0.4996377363812236  0.5002338721433942  0.8319566165820875
  0.6663952243571575  0.6677178528021563  0.8332748255566026
  0.8328309109363374  0.8340591279053209  0.8331080210795374
 -0.0008072116740590  0.0006858559860242  0.8331403398172652
  0.3324988728622557  0.1673396822854432  0.0000683122555868
  0.4990897854815259  0.3335140876693978 -0.0012790370030432
  0.6663958902077922  0.5007945341013779 -0.0013455041767671
  0.8325830935994059  0.6674143715271514  0.0000451470978275
 -0.0008091892683026  0.8340993319295241 -0.0002522962299215
  0.1657275884576257  0.0008701297770381  0.3330348402295659
  0.1663626439156658  0.8335295198379374  0.4994952045203667
  0.3315440815270243 -0.0019646751181677  0.4996999853953686
  0.1669906486241055  0.6669305218194165  0.6660009523982513
  0.3329273601991146  0.8328799827560570  0.6660094558096430
  0.4993056009105409 -0.0019728961079321  0.6674057426184947
  0.1663434324919299  0.5004492865889723  0.8325914367363459
  0.3329451882600714  0.6669493315663878  0.8319538672481519
  0.4994640433329561  0.8335397413427510  0.8325593637100611
  0.6659453100411465  0.0008483823985330  0.8332219203904851
  0.1657355540871702  0.3339930251326367 -0.0001008276076297
  0.3315729413979571  0.5006282674861653 -0.0028913313387407
  0.4992927290009971  0.6683452323460211 -0.0029286848709147
  0.6659298512424067  0.8342015832441403 -0.0001360223211779
  0.8324561090241591  0.0009186737584756 -0.0000414452377748
  0.1658820758388291  0.0001925928891005  0.6663864659064100
  0.1660916350253339  0.8337999540872206  0.8328570339429486
  0.3325772835644861  0.0002048727634857  0.8330663579323411
  0.1658778078176341  0.6673267100908888 -0.0007498538703803
  0.3325887291303077  0.8340209237919600 -0.0007515872276989
  0.4991947795577361  0.0009138328242236 -0.0000503173435521
  0.1657979924802835  0.0007217097830303 -0.0002487605784601
 
  0.00000000E+00  0.00000000E+00  0.00000000E+00
  0.00000000E+00  0.00000000E+00  0.00000000E+00
  0.00000000E+00  0.00000000E+00  0.00000000E+00
  0.00000000E+00  0.00000000E+00  0.00000000E+00
  0.00000000E+00  0.00000000E+00  0.00000000E+00
  0.00000000E+00  0.00000000E+00  0.00000000E+00
  0.00000000E+00  0.00000000E+00  0.00000000E+00
  0.00000000E+00  0.00000000E+00  0.00000000E+00
  0.00000000E+00  0.00000000E+00  0.00000000E+00
  0.00000000E+00  0.00000000E+00  0.00000000E+00
  0.00000000E+00  0.00000000E+00  0.00000000E+00
  0.00000000E+00  0.00000000E+00  0.00000000E+00
  0.00000000E+00  0.00000000E+00  0.00000000E+00
  0.00000000E+00  0.00000000E+00  0.00000000E+00
  0.00000000E+00  0.00000000E+00  0.00000000E+00
  0.00000000E+00  0.00000000E+00  0.00000000E+00
  0.00000000E+00  0.00000000E+00  0.00000000E+00
  0.00000000E+00  0.00000000E+00  0.00000000E+00
  0.00000000E+00  0.00000000E+00  0.00000000E+00
  0.00000000E+00  0.00000000E+00  0.00000000E+00
  0.00000000E+00  0.00000000E+00  0.00000000E+00
  0.00000000E+00  0.00000000E+00  0.00000000E+00
  0.00000000E+00  0.00000000E+00  0.00000000E+00
  0.00000000E+00  0.00000000E+00  0.00000000E+00
  0.00000000E+00  0.00000000E+00  0.00000000E+00
  0.00000000E+00  0.00000000E+00  0.00000000E+00
  0.00000000E+00  0.00000000E+00  0.00000000E+00
  0.00000000E+00  0.00000000E+00  0.00000000E+00
  0.00000000E+00  0.00000000E+00  0.00000000E+00
  0.00000000E+00  0.00000000E+00  0.00000000E+00
  0.00000000E+00  0.00000000E+00  0.00000000E+00
  0.00000000E+00  0.00000000E+00  0.00000000E+00
  0.00000000E+00  0.00000000E+00  0.00000000E+00
  0.00000000E+00  0.00000000E+00  0.00000000E+00
  0.00000000E+00  0.00000000E+00  0.00000000E+00
  0.00000000E+00  0.00000000E+00  0.00000000E+00
  0.00000000E+00  0.00000000E+00  0.00000000E+00
  0.00000000E+00  0.00000000E+00  0.00000000E+00
  0.00000000E+00  0.00000000E+00  0.00000000E+00
  0.00000000E+00  0.00000000E+00  0.00000000E+00
  0.00000000E+00  0.00000000E+00  0.00000000E+00
  0.00000000E+00  0.00000000E+00  0.00000000E+00
  0.00000000E+00  0.00000000E+00  0.00000000E+00
  0.00000000E+00  0.00000000E+00  0.00000000E+00
  0.00000000E+00  0.00000000E+00  0.00000000E+00
  0.00000000E+00  0.00000000E+00  0.00000000E+00
  0.00000000E+00  0.00000000E+00  0.00000000E+00
  0.00000000E+00  0.00000000E+00  0.00000000E+00
  0.00000000E+00  0.00000000E+00  0.00000000E+00
  0.00000000E+00  0.00000000E+00  0.00000000E+00
  0.00000000E+00  0.00000000E+00  0.00000000E+00
  0.00000000E+00  0.00000000E+00  0.00000000E+00
  0.00000000E+00  0.00000000E+00  0.00000000E+00
  0.00000000E+00  0.00000000E+00  0.00000000E+00
  0.00000000E+00  0.00000000E+00  0.00000000E+00
  0.00000000E+00  0.00000000E+00  0.00000000E+00
  0.00000000E+00  0.00000000E+00  0.00000000E+00
  0.00000000E+00  0.00000000E+00  0.00000000E+00
  0.00000000E+00  0.00000000E+00  0.00000000E+00
  0.00000000E+00  0.00000000E+00  0.00000000E+00
  0.00000000E+00  0.00000000E+00  0.00000000E+00
  0.00000000E+00  0.00000000E+00  0.00000000E+00
  0.00000000E+00  0.00000000E+00  0.00000000E+00
  0.00000000E+00  0.00000000E+00  0.00000000E+00
  0.00000000E+00  0.00000000E+00  0.00000000E+00
  0.00000000E+00  0.00000000E+00  0.00000000E+00
  0.00000000E+00  0.00000000E+00  0.00000000E+00
  0.00000000E+00  0.00000000E+00  0.00000000E+00
  0.00000000E+00  0.00000000E+00  0.00000000E+00
  0.00000000E+00  0.00000000E+00  0.00000000E+00
  0.00000000E+00  0.00000000E+00  0.00000000E+00
  0.00000000E+00  0.00000000E+00  0.00000000E+00
  0.00000000E+00  0.00000000E+00  0.00000000E+00
  0.00000000E+00  0.00000000E+00  0.00000000E+00
  0.00000000E+00  0.00000000E+00  0.00000000E+00
  0.00000000E+00  0.00000000E+00  0.00000000E+00
  0.00000000E+00  0.00000000E+00  0.00000000E+00
  0.00000000E+00  0.00000000E+00  0.00000000E+00
  0.00000000E+00  0.00000000E+00  0.00000000E+00
  0.00000000E+00  0.00000000E+00  0.00000000E+00
  0.00000000E+00  0.00000000E+00  0.00000000E+00
  0.00000000E+00  0.00000000E+00  0.00000000E+00
  0.00000000E+00  0.00000000E+00  0.00000000E+00
  0.00000000E+00  0.00000000E+00  0.00000000E+00
  0.00000000E+00  0.00000000E+00  0.00000000E+00
  0.00000000E+00  0.00000000E+00  0.00000000E+00
  0.00000000E+00  0.00000000E+00  0.00000000E+00
  0.00000000E+00  0.00000000E+00  0.00000000E+00
  0.00000000E+00  0.00000000E+00  0.00000000E+00
  0.00000000E+00  0.00000000E+00  0.00000000E+00
  0.00000000E+00  0.00000000E+00  0.00000000E+00
  0.00000000E+00  0.00000000E+00  0.00000000E+00
  0.00000000E+00  0.00000000E+00  0.00000000E+00
  0.00000000E+00  0.00000000E+00  0.00000000E+00
  0.00000000E+00  0.00000000E+00  0.00000000E+00
  0.00000000E+00  0.00000000E+00  0.00000000E+00
  0.00000000E+00  0.00000000E+00  0.00000000E+00
  0.00000000E+00  0.00000000E+00  0.00000000E+00
  0.00000000E+00  0.00000000E+00  0.00000000E+00
  0.00000000E+00  0.00000000E+00  0.00000000E+00
  0.00000000E+00  0.00000000E+00  0.00000000E+00
  0.00000000E+00  0.00000000E+00  0.00000000E+00
  0.00000000E+00  0.00000000E+00  0.00000000E+00
  0.00000000E+00  0.00000000E+00  0.00000000E+00
  0.00000000E+00  0.00000000E+00  0.00000000E+00
  0.00000000E+00  0.00000000E+00  0.00000000E+00
  0.00000000E+00  0.00000000E+00  0.00000000E+00
  0.00000000E+00  0.00000000E+00  0.00000000E+00
  0.00000000E+00  0.00000000E+00  0.00000000E+00
  0.00000000E+00  0.00000000E+00  0.00000000E+00
  0.00000000E+00  0.00000000E+00  0.00000000E+00
  0.00000000E+00  0.00000000E+00  0.00000000E+00
  0.00000000E+00  0.00000000E+00  0.00000000E+00
  0.00000000E+00  0.00000000E+00  0.00000000E+00
  0.00000000E+00  0.00000000E+00  0.00000000E+00
  0.00000000E+00  0.00000000E+00  0.00000000E+00
  0.00000000E+00  0.00000000E+00  0.00000000E+00
  0.00000000E+00  0.00000000E+00  0.00000000E+00
  0.00000000E+00  0.00000000E+00  0.00000000E+00
  0.00000000E+00  0.00000000E+00  0.00000000E+00
  0.00000000E+00  0.00000000E+00  0.00000000E+00
  0.00000000E+00  0.00000000E+00  0.00000000E+00
  0.00000000E+00  0.00000000E+00  0.00000000E+00
  0.00000000E+00  0.00000000E+00  0.00000000E+00
  0.00000000E+00  0.00000000E+00  0.00000000E+00
  0.00000000E+00  0.00000000E+00  0.00000000E+00
  0.00000000E+00  0.00000000E+00  0.00000000E+00
  0.00000000E+00  0.00000000E+00  0.00000000E+00
  0.00000000E+00  0.00000000E+00  0.00000000E+00
  0.00000000E+00  0.00000000E+00  0.00000000E+00
  0.00000000E+00  0.00000000E+00  0.00000000E+00
  0.00000000E+00  0.00000000E+00  0.00000000E+00
  0.00000000E+00  0.00000000E+00  0.00000000E+00
  0.00000000E+00  0.00000000E+00  0.00000000E+00
  0.00000000E+00  0.00000000E+00  0.00000000E+00
  0.00000000E+00  0.00000000E+00  0.00000000E+00
  0.00000000E+00  0.00000000E+00  0.00000000E+00
  0.00000000E+00  0.00000000E+00  0.00000000E+00
  0.00000000E+00  0.00000000E+00  0.00000000E+00
  0.00000000E+00  0.00000000E+00  0.00000000E+00
  0.00000000E+00  0.00000000E+00  0.00000000E+00
  0.00000000E+00  0.00000000E+00  0.00000000E+00
  0.00000000E+00  0.00000000E+00  0.00000000E+00
  0.00000000E+00  0.00000000E+00  0.00000000E+00
  0.00000000E+00  0.00000000E+00  0.00000000E+00
  0.00000000E+00  0.00000000E+00  0.00000000E+00
  0.00000000E+00  0.00000000E+00  0.00000000E+00
  0.00000000E+00  0.00000000E+00  0.00000000E+00
  0.00000000E+00  0.00000000E+00  0.00000000E+00
  0.00000000E+00  0.00000000E+00  0.00000000E+00
  0.00000000E+00  0.00000000E+00  0.00000000E+00
  0.00000000E+00  0.00000000E+00  0.00000000E+00
  0.00000000E+00  0.00000000E+00  0.00000000E+00
  0.00000000E+00  0.00000000E+00  0.00000000E+00
  0.00000000E+00  0.00000000E+00  0.00000000E+00
  0.00000000E+00  0.00000000E+00  0.00000000E+00
  0.00000000E+00  0.00000000E+00  0.00000000E+00
  0.00000000E+00  0.00000000E+00  0.00000000E+00
  0.00000000E+00  0.00000000E+00  0.00000000E+00
  0.00000000E+00  0.00000000E+00  0.00000000E+00
  0.00000000E+00  0.00000000E+00  0.00000000E+00
  0.00000000E+00  0.00000000E+00  0.00000000E+00
  0.00000000E+00  0.00000000E+00  0.00000000E+00
  0.00000000E+00  0.00000000E+00  0.00000000E+00
  0.00000000E+00  0.00000000E+00  0.00000000E+00
  0.00000000E+00  0.00000000E+00  0.00000000E+00
  0.00000000E+00  0.00000000E+00  0.00000000E+00
  0.00000000E+00  0.00000000E+00  0.00000000E+00
  0.00000000E+00  0.00000000E+00  0.00000000E+00
  0.00000000E+00  0.00000000E+00  0.00000000E+00
  0.00000000E+00  0.00000000E+00  0.00000000E+00
  0.00000000E+00  0.00000000E+00  0.00000000E+00
  0.00000000E+00  0.00000000E+00  0.00000000E+00
  0.00000000E+00  0.00000000E+00  0.00000000E+00
  0.00000000E+00  0.00000000E+00  0.00000000E+00
  0.00000000E+00  0.00000000E+00  0.00000000E+00
  0.00000000E+00  0.00000000E+00  0.00000000E+00
  0.00000000E+00  0.00000000E+00  0.00000000E+00
  0.00000000E+00  0.00000000E+00  0.00000000E+00
  0.00000000E+00  0.00000000E+00  0.00000000E+00
  0.00000000E+00  0.00000000E+00  0.00000000E+00
  0.00000000E+00  0.00000000E+00  0.00000000E+00
  0.00000000E+00  0.00000000E+00  0.00000000E+00
  0.00000000E+00  0.00000000E+00  0.00000000E+00
  0.00000000E+00  0.00000000E+00  0.00000000E+00
  0.00000000E+00  0.00000000E+00  0.00000000E+00
  0.00000000E+00  0.00000000E+00  0.00000000E+00
  0.00000000E+00  0.00000000E+00  0.00000000E+00
  0.00000000E+00  0.00000000E+00  0.00000000E+00
  0.00000000E+00  0.00000000E+00  0.00000000E+00
  0.00000000E+00  0.00000000E+00  0.00000000E+00
  0.00000000E+00  0.00000000E+00  0.00000000E+00
  0.00000000E+00  0.00000000E+00  0.00000000E+00
  0.00000000E+00  0.00000000E+00  0.00000000E+00
  0.00000000E+00  0.00000000E+00  0.00000000E+00
  0.00000000E+00  0.00000000E+00  0.00000000E+00
  0.00000000E+00  0.00000000E+00  0.00000000E+00
  0.00000000E+00  0.00000000E+00  0.00000000E+00
  0.00000000E+00  0.00000000E+00  0.00000000E+00
  0.00000000E+00  0.00000000E+00  0.00000000E+00
  0.00000000E+00  0.00000000E+00  0.00000000E+00
  0.00000000E+00  0.00000000E+00  0.00000000E+00
  0.00000000E+00  0.00000000E+00  0.00000000E+00
  0.00000000E+00  0.00000000E+00  0.00000000E+00
  0.00000000E+00  0.00000000E+00  0.00000000E+00
  0.00000000E+00  0.00000000E+00  0.00000000E+00
  0.00000000E+00  0.00000000E+00  0.00000000E+00
  0.00000000E+00  0.00000000E+00  0.00000000E+00
  0.00000000E+00  0.00000000E+00  0.00000000E+00
  0.00000000E+00  0.00000000E+00  0.00000000E+00
  0.00000000E+00  0.00000000E+00  0.00000000E+00
  0.00000000E+00  0.00000000E+00  0.00000000E+00
  0.00000000E+00  0.00000000E+00  0.00000000E+00
  0.00000000E+00  0.00000000E+00  0.00000000E+00
  0.00000000E+00  0.00000000E+00  0.00000000E+00
  0.00000000E+00  0.00000000E+00  0.00000000E+00
