ADDGRID = True
AEXX = 0.25
ALGO = Normal # change to all if zhegv, fexcp/f or zbrent errors encountered
EDIFF = 1e-05
EDIFFG = -0.01
ENCUT = 350
GGA = Pe
HFSCREEN = 0.208
IBRION = 5
ICORELEVEL = 0  # needed if using the kumagai-oba (efnv) anisotropic charge correction scheme
ISIF = 2
ISMEAR = 0
ISPIN = 2
ISYM = 0  # symmetry breaking extremely likely for defects
KPAR = 2
LASPH = True
LHFCALC = True
LMAXMIX = 4
LORBIT = 14
LREAL = Auto
LVHAR = True
NCORE = 16
NEDOS = 2000
NELECT = 573.0
NSW = 300
NUPDOWN = 1
POTIM = 0.2
PREC = Accurate
PRECFOCK = Fast
SIGMA = 0.05
