Unperturbed N(Distort)=0 ~[0.5,0.5,0.5] 
   1.00000000000000     
    12.5998379999999983    0.0000000000000004    0.0000000000000004
     0.0000000000000004   12.5998379999999983   -0.0000000000000004
    -0.0000000000000004   -0.0000000000000004   12.5998379999999983
   Mg   O 
   109   107
Direct
  0.6673880140355135 -0.0000000020802394 -0.0000000534365428
  0.8336419346525715  0.1663580678271432 -0.0000000026931207
  0.8336419390307407  0.0000000027915759  0.1663579985621849
  0.3326119857475734  0.0000000001723524  0.0000000531971718
  0.4999999961484570  0.1654835626799203  0.0000000423801402
  0.6674085251999382  0.3325914760890908 -0.0000000062597366
  0.8345164381716542  0.5000000056510263 -0.0000000454204801
  0.5000000056216241  0.0000000019936788  0.1654835005440553
  0.6673444182855495  0.1664089269211519  0.1664088900809348
  0.8335910734104507  0.3326555963149156  0.1664088981739276
  0.6674085655428895  0.0000000064799441  0.3325913769734967
  0.8335910953913432  0.1664089240849677  0.3326555750826957
  0.8345165069246258  0.0000000074416911  0.4999999430379655
 -0.0000000006103010 -0.0000000005416104 -0.0000000001345550
  0.1663580586924882  0.1663580643510086  0.0000001079749474
  0.3325914649653687  0.3325914669561482  0.0000001111207674
  0.4999999988936942  0.4999999991666910 -0.0000000031669682
  0.6674085323346993  0.6674085321051241 -0.0000001111556008
  0.8336419400242645  0.8336419344727655 -0.0000001080504440
  0.1663580557676539 -0.0000000008256833  0.1663581053608644
  0.3326555753131724  0.1664089260051585  0.1664090300601563
  0.4999999984285117  0.3304273309124273  0.1614849938069917
  0.6695726737375216  0.5000000016125761  0.1614849229219161
  0.8335910746318790  0.6673444027172468  0.1664087636949064
  0.3325914420366086 -0.0000000025760038  0.3325914974258067
  0.4999999958344348  0.1614850114010254  0.3304273385709353
  0.6665703701282950  0.3334296224251028  0.3334295857287303
  0.8385150134012457  0.4999999935477032  0.3304272230038954
  0.5000000024322393 -0.0000000016996626  0.5000000003885487
  0.6695726981365832  0.1614849851161974  0.4999999807106977
  0.8385150214124972  0.3304273162431851  0.5000000183063315
  0.6674085603768978  0.0000000018209224  0.6674085021623367
  0.8335910766706406  0.1664089137232184  0.6673444208522874
  0.8336419436429939 -0.0000000007930274  0.8336418939233938
 -0.0000000015813002  0.3326119979315882  0.0000000508642294
  0.1654835586514972  0.4999999949716405  0.0000000446525826
  0.3325914737203656  0.6674085240014912  0.0000000042225878
  0.5000000036102780  0.8345164362790153 -0.0000000430118741
 -0.0000000004297127  0.1663580555514867  0.1663581013389154
  0.1664089253334214  0.3326555813718144  0.1664090343291188
  0.3304273285039789  0.4999999985063674  0.1614849780530728
  0.5000000009357134  0.6695726755372280  0.1614849462875570
  0.6673444115625722  0.8335910761155502  0.1664087591222873
  0.0000000007015388 -0.0000000041852798  0.3326119789427656
  0.1664089028072938  0.1664089034693035  0.3326557196443491
  0.3334296278195266  0.3334296152342441  0.3334297582171729
  0.5000000010371306  0.5000000014022532  0.3035060555485922
  0.6665703772472529  0.6665703845593590  0.3334294145790274
  0.8335910980893226  0.8335910902441611  0.3326554363015323
  0.1654834980862136 -0.0000000110324701  0.5000000565234476
  0.3304272890162689  0.1614849731831434  0.5000001450004994
  0.4999999896623883  0.3035061730041573  0.5000001099824608
  0.6964938404872772  0.5000000129136353  0.4999998993218898
  0.8385150282466624  0.6695726971944370  0.4999998576549252
  0.3325914355663005 -0.0000000067135315  0.6674086243408964
  0.4999999997815007  0.1614850094727451  0.6695727929554679
  0.6665703643794044  0.3334296227211586  0.6665704123425155
  0.8385150095092009  0.5000000094173709  0.6695726522640734
  0.4999999953498128 -0.0000000025448558  0.8345164992343657
  0.6673444073783530  0.1664089257109607  0.8335911001776826
  0.8335910691643269  0.3326555937842668  0.8335911002586109
 -0.0000000007141489  0.6673880026772530 -0.0000000513829236
  0.1663580652684959  0.8336419322689727  0.0000000014589622
  0.0000000007027789  0.4999999978679425  0.1654835091571456
  0.1664089301789560  0.6673444083488529  0.1664088975157865
  0.3326555931845008  0.8335910739886684  0.1664088964858640
  0.0000000011527434  0.3325914416871464  0.3325914992748012
  0.1614849883422533  0.4999999930041247  0.3304273492993529
  0.3334296371137708  0.6665703802324091  0.3334295879953272
  0.5000000021334960  0.8385149893099128  0.3304272069463433
 -0.0000000062095586  0.1654835092131693  0.5000000535409455
  0.1614849708549364  0.3304273037898449  0.5000001428357008
  0.3035061552926194  0.4999999930311134  0.5000001077183448
  0.5000000159323601  0.6964938057836172  0.4999998945709792
  0.6695727136864261  0.8385150252526603  0.4999998550143631
  0.0000000019031737  0.0000000015277516  0.6673880206464623
  0.1664089023913316  0.1664089099214666  0.6673445622828196
  0.3334296227965193  0.3334296181389123  0.6665705858228255
  0.4999999985754011  0.5000000068643971  0.6964939282696490
  0.6665703716973256  0.6665703864782876  0.6665702422233006
  0.8335910984468565  0.8335910946234546  0.6673442803671631
  0.1663580597731515 -0.0000000038279511  0.8336420016271401
  0.3326555867366406  0.1664089251475480  0.8335912419281201
  0.4999999982883670  0.3304273268138774  0.8385150515766764
  0.6695726690539056  0.5000000023616413  0.8385150205199439
  0.8335910720337043  0.6673444194492980  0.8335909667638695
  0.0000000057141137  0.8336419335799576  0.1663580002727482
  0.0000000104259281  0.6674085529910019  0.3325913841162048
  0.1664089258512358  0.8335910869632184  0.3326555788665123
 -0.0000000009459187  0.4999999993879454  0.5000000015745124
  0.1614849789089132  0.6695726841832618  0.4999999837563628
  0.3304273044184042  0.8385150140134344  0.5000000208355677
 -0.0000000092748759  0.3325914488062036  0.6674086146920138
  0.1614849856179443  0.5000000084659678  0.6695727805081584
  0.3334296305866406  0.6665703798795656  0.6665704165626170
  0.5000000053075070  0.8385149860602259  0.6695726639764813
 -0.0000000052379762  0.1663580667183969  0.8336419973475412
  0.1664089233570183  0.3326555992323473  0.8335912354865077
  0.3304273243987726  0.4999999990952092  0.8385150755480728
  0.5000000000785478  0.6695726702836314  0.8385150045166289
  0.6673444222455119  0.8335910743611402  0.8335909693483147
  0.0000000089529004  0.8345164882532006  0.4999999467627055
 -0.0000000013017714  0.6674085585014272  0.6674085037583138
  0.1664089056575118  0.8335910752129307  0.6673444249830720
 -0.0000000031461951  0.5000000029767848  0.8345164912816949
  0.1664089251775405  0.6673444045280261  0.8335911027791119
  0.3326555813133774  0.8335910729814969  0.8335911124317995
  0.0000000001572521  0.8336419430117407  0.8336418991383383
  0.4999999892468673  0.4999999819706821  0.4999999857102738
  0.8326352067371265  0.1673648030649014  0.1673648186140853
  0.0000000001399852  0.3337441294385554  0.1672246053513978
  0.0000000031619844  0.1672245354619417  0.3337441279033764
  0.4999999884432690  0.1679133235644228  0.1679134412347517
  0.6649118939675179  0.3350881067165186  0.1684897715612732
  0.8320866731302085  0.4999999892379650  0.1679132323172970
  0.0000000049364350  0.6662558730680574  0.1672244332402118
  0.6649118762137521  0.1684897533213619  0.3350881198261008
  0.8315102282531672  0.3350881877465977  0.3350881999480620
 -0.0000000046533086  0.5000000117628504  0.3322471727677478
  0.8320865995217502  0.1679133541489192  0.4999999963625112
 -0.0000000007269656  0.3322470386496014  0.4999999837203871
 -0.0000000009612397  0.1672245581516910  0.6662560516626432
  0.1673648006163417  0.1673647892430604  0.1673650231410083
  0.3350881074484488  0.3350881144800592  0.1684900701968868
  0.4999999733152427  0.4999999713081240  0.1568286320596823
  0.6649119053272231  0.6649118900415116  0.1684894527054419
  0.8326352031089926  0.8326352059784720  0.1673646251675187
  0.0000000020379320  0.0000000006255174  0.1668763449469159
  0.3350881206607864  0.1684897433276940  0.3350884298380531
  0.5000000076886990  0.3424500749643195  0.3424501872730549
  0.6575499573817838  0.5000000142301795  0.3424498861798380
  0.8315102374060361  0.6649118156404183  0.3350878956921376
  0.0000000015568961  0.8327754398523767  0.3337439463482457
  0.4999999966065041  0.1568284677949131  0.5000000108501682
  0.6575497999341475  0.3424501819844837  0.4999999970025679
  0.8431714982070856  0.5000000004253249  0.4999999896092720
 -0.0000000001332130  0.6677529616751114  0.5000000152416868
  0.6649118223087649  0.1684897529502579  0.6649117979821015
  0.8315102298362477  0.3350881395817402  0.6649118736514995
  0.0000000053750031  0.4999999890337619  0.6677528270937584
  0.8326351843261518  0.1673647893245351  0.8326351708453890
 -0.0000000054408549  0.3337441263147732  0.8327755677748585
 -0.0000000025191339  0.1668763355288585  0.0000000672304361
  0.1679133541878007  0.4999999828939698  0.1679134265053322
  0.3350880986266198  0.6649118829542962  0.1684897704888443
  0.4999999938129885  0.8320866945486425  0.1679132583302847
  0.6662558892391718  0.0000000086697534  0.1672244337607064
  0.1684897640954417  0.3350881292090511  0.3350884336623793
  0.3424501584349648  0.5000000061239417  0.3424502503101111
  0.5000000186628055  0.6575500323696142  0.3424498223483559
  0.6649118358620052  0.8315102549231942  0.3350878923018579
  0.8327754753531369 -0.0000000021671735  0.3337439846521669
  0.1679133904997604  0.1679133423319042  0.5000002508742040
  0.3424501717209320  0.3424501575395553  0.5000002342435106
  0.6575498364733894  0.6575498478640019  0.4999997651751346
  0.8320866126465040  0.8320866565649064  0.4999997478456183
  0.0000000015245084 -0.0000000017357713  0.4999999994006648
  0.3350881654942352  0.1684897467386385  0.6649121079939168
  0.4999999807350359  0.3424499714765775  0.6575501708806062
  0.6575498460473327  0.4999999967246789  0.6575497539983969
  0.8315102364499354  0.6649118728871450  0.6649115667544914
 -0.0000000035778805  0.8327754640121046  0.6662558725623439
  0.5000000064945468  0.1679133059718064  0.8320867411649691
  0.6649119003693998  0.3350881161818807  0.8315102286563651
  0.8320866441085785  0.5000000181172199  0.8320865742010159
 -0.0000000012406191  0.6662558704877862  0.8327753946317548
  0.6662559952655976  0.1672244956627927  0.0000000071149694
  0.8327755352689795  0.3337440557249039 -0.0000000129067630
 -0.0000000011904013  0.4999999989714137  0.0000000014887749
  0.1673648157194691  0.8326352100561315  0.1673648268107452
  0.3337441115041021 -0.0000000035861939  0.1672246210614454
  0.1684897711634509  0.6649118601546948  0.3350881252631572
  0.3350881795676933  0.8315102483213481  0.3350882013564049
  0.5000000212167416 -0.0000000021538874  0.3322472158363144
  0.1568284984970076  0.5000000000658255  0.5000000093583946
  0.3424502022371095  0.6575498182153017  0.5000000030618615
  0.5000000065694242  0.8431715342516268  0.4999999885859431
  0.6677528782624842 -0.0000000017636144  0.5000000095200416
  0.1684897636295888  0.3350881843983883  0.6649121032364073
  0.3424500373838389  0.4999999877695069  0.6575501168283298
  0.4999999923094189  0.6575499370351388  0.6575498228936765
  0.6649118811474543  0.8315102595467661  0.6649115697222079
  0.8327754839406937  0.0000000019266079  0.6662558435228714
  0.1673647962938512  0.1673647949634172  0.8326353761427975
  0.3350880936748894  0.3350881086882382  0.8315105477519467
  0.5000000249722861  0.5000000263223884  0.8431713710487079
  0.6649118917262214  0.6649118861739264  0.8315099322569930
  0.8326351989131093  0.8326352117954859  0.8326349759641594
 -0.0000000031681049 -0.0000000007995170  0.8331236545525956
  0.3337440085618959  0.1672244906857642  0.0000001926097765
  0.5000000150671241  0.3322470236127733 -0.0000000116201664
  0.6677529320239021  0.4999999860448350  0.0000000066088304
  0.8327755404426697  0.6662559424401614 -0.0000001881673265
  0.0000000020923631  0.8331236642711962 -0.0000000674261919
  0.1672245191092120 -0.0000000029596962  0.3337441560385569
  0.1679134047212341  0.8320866450795013  0.5000000031518008
  0.3322471225896869 -0.0000000018305119  0.4999999901740560
  0.1684897718058681  0.6649118130006856  0.6649118010462723
  0.3350881243502015  0.8315102492887964  0.6649118813109089
  0.4999999818823411 -0.0000000003594225  0.6677527847305685
  0.1679133245892279  0.5000000106429398  0.8320867705387348
  0.3350881040052643  0.6649118934867126  0.8315102313155702
  0.5000000114895954  0.8320866788508809  0.8320865604778608
  0.6662558909067808  0.0000000050892307  0.8327753809069147
  0.1672244575150999  0.3337440563104133  0.0000001894406189
  0.3322470659316214  0.5000000114264022 -0.0000000071108182
  0.4999999829238358  0.6677529752466980  0.0000000113598218
  0.6662559901673388  0.8327755082147912 -0.0000001921568355
  0.8331236696413536  0.0000000013429437 -0.0000000702842083
  0.1672245269489794  0.0000000025472793  0.6662560145420496
  0.1673647927030553  0.8326351970740881  0.8326351833835903
  0.3337441125288159 -0.0000000068736956  0.8327755650068546
  0.1672244646898900  0.6662559429706472  0.0000000146049588
  0.3337440032993993  0.8327755045468843 -0.0000000068606870
  0.5000000014517560  0.0000000000766864  0.0000000003031420
  0.1668763292470571 -0.0000000013154147  0.0000000699300627
 
  0.00000000E+00  0.00000000E+00  0.00000000E+00
  0.00000000E+00  0.00000000E+00  0.00000000E+00
  0.00000000E+00  0.00000000E+00  0.00000000E+00
  0.00000000E+00  0.00000000E+00  0.00000000E+00
  0.00000000E+00  0.00000000E+00  0.00000000E+00
  0.00000000E+00  0.00000000E+00  0.00000000E+00
  0.00000000E+00  0.00000000E+00  0.00000000E+00
  0.00000000E+00  0.00000000E+00  0.00000000E+00
  0.00000000E+00  0.00000000E+00  0.00000000E+00
  0.00000000E+00  0.00000000E+00  0.00000000E+00
  0.00000000E+00  0.00000000E+00  0.00000000E+00
  0.00000000E+00  0.00000000E+00  0.00000000E+00
  0.00000000E+00  0.00000000E+00  0.00000000E+00
  0.00000000E+00  0.00000000E+00  0.00000000E+00
  0.00000000E+00  0.00000000E+00  0.00000000E+00
  0.00000000E+00  0.00000000E+00  0.00000000E+00
  0.00000000E+00  0.00000000E+00  0.00000000E+00
  0.00000000E+00  0.00000000E+00  0.00000000E+00
  0.00000000E+00  0.00000000E+00  0.00000000E+00
  0.00000000E+00  0.00000000E+00  0.00000000E+00
  0.00000000E+00  0.00000000E+00  0.00000000E+00
  0.00000000E+00  0.00000000E+00  0.00000000E+00
  0.00000000E+00  0.00000000E+00  0.00000000E+00
  0.00000000E+00  0.00000000E+00  0.00000000E+00
  0.00000000E+00  0.00000000E+00  0.00000000E+00
  0.00000000E+00  0.00000000E+00  0.00000000E+00
  0.00000000E+00  0.00000000E+00  0.00000000E+00
  0.00000000E+00  0.00000000E+00  0.00000000E+00
  0.00000000E+00  0.00000000E+00  0.00000000E+00
  0.00000000E+00  0.00000000E+00  0.00000000E+00
  0.00000000E+00  0.00000000E+00  0.00000000E+00
  0.00000000E+00  0.00000000E+00  0.00000000E+00
  0.00000000E+00  0.00000000E+00  0.00000000E+00
  0.00000000E+00  0.00000000E+00  0.00000000E+00
  0.00000000E+00  0.00000000E+00  0.00000000E+00
  0.00000000E+00  0.00000000E+00  0.00000000E+00
  0.00000000E+00  0.00000000E+00  0.00000000E+00
  0.00000000E+00  0.00000000E+00  0.00000000E+00
  0.00000000E+00  0.00000000E+00  0.00000000E+00
  0.00000000E+00  0.00000000E+00  0.00000000E+00
  0.00000000E+00  0.00000000E+00  0.00000000E+00
  0.00000000E+00  0.00000000E+00  0.00000000E+00
  0.00000000E+00  0.00000000E+00  0.00000000E+00
  0.00000000E+00  0.00000000E+00  0.00000000E+00
  0.00000000E+00  0.00000000E+00  0.00000000E+00
  0.00000000E+00  0.00000000E+00  0.00000000E+00
  0.00000000E+00  0.00000000E+00  0.00000000E+00
  0.00000000E+00  0.00000000E+00  0.00000000E+00
  0.00000000E+00  0.00000000E+00  0.00000000E+00
  0.00000000E+00  0.00000000E+00  0.00000000E+00
  0.00000000E+00  0.00000000E+00  0.00000000E+00
  0.00000000E+00  0.00000000E+00  0.00000000E+00
  0.00000000E+00  0.00000000E+00  0.00000000E+00
  0.00000000E+00  0.00000000E+00  0.00000000E+00
  0.00000000E+00  0.00000000E+00  0.00000000E+00
  0.00000000E+00  0.00000000E+00  0.00000000E+00
  0.00000000E+00  0.00000000E+00  0.00000000E+00
  0.00000000E+00  0.00000000E+00  0.00000000E+00
  0.00000000E+00  0.00000000E+00  0.00000000E+00
  0.00000000E+00  0.00000000E+00  0.00000000E+00
  0.00000000E+00  0.00000000E+00  0.00000000E+00
  0.00000000E+00  0.00000000E+00  0.00000000E+00
  0.00000000E+00  0.00000000E+00  0.00000000E+00
  0.00000000E+00  0.00000000E+00  0.00000000E+00
  0.00000000E+00  0.00000000E+00  0.00000000E+00
  0.00000000E+00  0.00000000E+00  0.00000000E+00
  0.00000000E+00  0.00000000E+00  0.00000000E+00
  0.00000000E+00  0.00000000E+00  0.00000000E+00
  0.00000000E+00  0.00000000E+00  0.00000000E+00
  0.00000000E+00  0.00000000E+00  0.00000000E+00
  0.00000000E+00  0.00000000E+00  0.00000000E+00
  0.00000000E+00  0.00000000E+00  0.00000000E+00
  0.00000000E+00  0.00000000E+00  0.00000000E+00
  0.00000000E+00  0.00000000E+00  0.00000000E+00
  0.00000000E+00  0.00000000E+00  0.00000000E+00
  0.00000000E+00  0.00000000E+00  0.00000000E+00
  0.00000000E+00  0.00000000E+00  0.00000000E+00
  0.00000000E+00  0.00000000E+00  0.00000000E+00
  0.00000000E+00  0.00000000E+00  0.00000000E+00
  0.00000000E+00  0.00000000E+00  0.00000000E+00
  0.00000000E+00  0.00000000E+00  0.00000000E+00
  0.00000000E+00  0.00000000E+00  0.00000000E+00
  0.00000000E+00  0.00000000E+00  0.00000000E+00
  0.00000000E+00  0.00000000E+00  0.00000000E+00
  0.00000000E+00  0.00000000E+00  0.00000000E+00
  0.00000000E+00  0.00000000E+00  0.00000000E+00
  0.00000000E+00  0.00000000E+00  0.00000000E+00
  0.00000000E+00  0.00000000E+00  0.00000000E+00
  0.00000000E+00  0.00000000E+00  0.00000000E+00
  0.00000000E+00  0.00000000E+00  0.00000000E+00
  0.00000000E+00  0.00000000E+00  0.00000000E+00
  0.00000000E+00  0.00000000E+00  0.00000000E+00
  0.00000000E+00  0.00000000E+00  0.00000000E+00
  0.00000000E+00  0.00000000E+00  0.00000000E+00
  0.00000000E+00  0.00000000E+00  0.00000000E+00
  0.00000000E+00  0.00000000E+00  0.00000000E+00
  0.00000000E+00  0.00000000E+00  0.00000000E+00
  0.00000000E+00  0.00000000E+00  0.00000000E+00
  0.00000000E+00  0.00000000E+00  0.00000000E+00
  0.00000000E+00  0.00000000E+00  0.00000000E+00
  0.00000000E+00  0.00000000E+00  0.00000000E+00
  0.00000000E+00  0.00000000E+00  0.00000000E+00
  0.00000000E+00  0.00000000E+00  0.00000000E+00
  0.00000000E+00  0.00000000E+00  0.00000000E+00
  0.00000000E+00  0.00000000E+00  0.00000000E+00
  0.00000000E+00  0.00000000E+00  0.00000000E+00
  0.00000000E+00  0.00000000E+00  0.00000000E+00
  0.00000000E+00  0.00000000E+00  0.00000000E+00
  0.00000000E+00  0.00000000E+00  0.00000000E+00
  0.00000000E+00  0.00000000E+00  0.00000000E+00
  0.00000000E+00  0.00000000E+00  0.00000000E+00
  0.00000000E+00  0.00000000E+00  0.00000000E+00
  0.00000000E+00  0.00000000E+00  0.00000000E+00
  0.00000000E+00  0.00000000E+00  0.00000000E+00
  0.00000000E+00  0.00000000E+00  0.00000000E+00
  0.00000000E+00  0.00000000E+00  0.00000000E+00
  0.00000000E+00  0.00000000E+00  0.00000000E+00
  0.00000000E+00  0.00000000E+00  0.00000000E+00
  0.00000000E+00  0.00000000E+00  0.00000000E+00
  0.00000000E+00  0.00000000E+00  0.00000000E+00
  0.00000000E+00  0.00000000E+00  0.00000000E+00
  0.00000000E+00  0.00000000E+00  0.00000000E+00
  0.00000000E+00  0.00000000E+00  0.00000000E+00
  0.00000000E+00  0.00000000E+00  0.00000000E+00
  0.00000000E+00  0.00000000E+00  0.00000000E+00
  0.00000000E+00  0.00000000E+00  0.00000000E+00
  0.00000000E+00  0.00000000E+00  0.00000000E+00
  0.00000000E+00  0.00000000E+00  0.00000000E+00
  0.00000000E+00  0.00000000E+00  0.00000000E+00
  0.00000000E+00  0.00000000E+00  0.00000000E+00
  0.00000000E+00  0.00000000E+00  0.00000000E+00
  0.00000000E+00  0.00000000E+00  0.00000000E+00
  0.00000000E+00  0.00000000E+00  0.00000000E+00
  0.00000000E+00  0.00000000E+00  0.00000000E+00
  0.00000000E+00  0.00000000E+00  0.00000000E+00
  0.00000000E+00  0.00000000E+00  0.00000000E+00
  0.00000000E+00  0.00000000E+00  0.00000000E+00
  0.00000000E+00  0.00000000E+00  0.00000000E+00
  0.00000000E+00  0.00000000E+00  0.00000000E+00
  0.00000000E+00  0.00000000E+00  0.00000000E+00
  0.00000000E+00  0.00000000E+00  0.00000000E+00
  0.00000000E+00  0.00000000E+00  0.00000000E+00
  0.00000000E+00  0.00000000E+00  0.00000000E+00
  0.00000000E+00  0.00000000E+00  0.00000000E+00
  0.00000000E+00  0.00000000E+00  0.00000000E+00
  0.00000000E+00  0.00000000E+00  0.00000000E+00
  0.00000000E+00  0.00000000E+00  0.00000000E+00
  0.00000000E+00  0.00000000E+00  0.00000000E+00
  0.00000000E+00  0.00000000E+00  0.00000000E+00
  0.00000000E+00  0.00000000E+00  0.00000000E+00
  0.00000000E+00  0.00000000E+00  0.00000000E+00
  0.00000000E+00  0.00000000E+00  0.00000000E+00
  0.00000000E+00  0.00000000E+00  0.00000000E+00
  0.00000000E+00  0.00000000E+00  0.00000000E+00
  0.00000000E+00  0.00000000E+00  0.00000000E+00
  0.00000000E+00  0.00000000E+00  0.00000000E+00
  0.00000000E+00  0.00000000E+00  0.00000000E+00
  0.00000000E+00  0.00000000E+00  0.00000000E+00
  0.00000000E+00  0.00000000E+00  0.00000000E+00
  0.00000000E+00  0.00000000E+00  0.00000000E+00
  0.00000000E+00  0.00000000E+00  0.00000000E+00
  0.00000000E+00  0.00000000E+00  0.00000000E+00
  0.00000000E+00  0.00000000E+00  0.00000000E+00
  0.00000000E+00  0.00000000E+00  0.00000000E+00
  0.00000000E+00  0.00000000E+00  0.00000000E+00
  0.00000000E+00  0.00000000E+00  0.00000000E+00
  0.00000000E+00  0.00000000E+00  0.00000000E+00
  0.00000000E+00  0.00000000E+00  0.00000000E+00
  0.00000000E+00  0.00000000E+00  0.00000000E+00
  0.00000000E+00  0.00000000E+00  0.00000000E+00
  0.00000000E+00  0.00000000E+00  0.00000000E+00
  0.00000000E+00  0.00000000E+00  0.00000000E+00
  0.00000000E+00  0.00000000E+00  0.00000000E+00
  0.00000000E+00  0.00000000E+00  0.00000000E+00
  0.00000000E+00  0.00000000E+00  0.00000000E+00
  0.00000000E+00  0.00000000E+00  0.00000000E+00
  0.00000000E+00  0.00000000E+00  0.00000000E+00
  0.00000000E+00  0.00000000E+00  0.00000000E+00
  0.00000000E+00  0.00000000E+00  0.00000000E+00
  0.00000000E+00  0.00000000E+00  0.00000000E+00
  0.00000000E+00  0.00000000E+00  0.00000000E+00
  0.00000000E+00  0.00000000E+00  0.00000000E+00
  0.00000000E+00  0.00000000E+00  0.00000000E+00
  0.00000000E+00  0.00000000E+00  0.00000000E+00
  0.00000000E+00  0.00000000E+00  0.00000000E+00
  0.00000000E+00  0.00000000E+00  0.00000000E+00
  0.00000000E+00  0.00000000E+00  0.00000000E+00
  0.00000000E+00  0.00000000E+00  0.00000000E+00
  0.00000000E+00  0.00000000E+00  0.00000000E+00
  0.00000000E+00  0.00000000E+00  0.00000000E+00
  0.00000000E+00  0.00000000E+00  0.00000000E+00
  0.00000000E+00  0.00000000E+00  0.00000000E+00
  0.00000000E+00  0.00000000E+00  0.00000000E+00
  0.00000000E+00  0.00000000E+00  0.00000000E+00
  0.00000000E+00  0.00000000E+00  0.00000000E+00
  0.00000000E+00  0.00000000E+00  0.00000000E+00
  0.00000000E+00  0.00000000E+00  0.00000000E+00
  0.00000000E+00  0.00000000E+00  0.00000000E+00
  0.00000000E+00  0.00000000E+00  0.00000000E+00
  0.00000000E+00  0.00000000E+00  0.00000000E+00
  0.00000000E+00  0.00000000E+00  0.00000000E+00
  0.00000000E+00  0.00000000E+00  0.00000000E+00
  0.00000000E+00  0.00000000E+00  0.00000000E+00
  0.00000000E+00  0.00000000E+00  0.00000000E+00
  0.00000000E+00  0.00000000E+00  0.00000000E+00
  0.00000000E+00  0.00000000E+00  0.00000000E+00
  0.00000000E+00  0.00000000E+00  0.00000000E+00
  0.00000000E+00  0.00000000E+00  0.00000000E+00
  0.00000000E+00  0.00000000E+00  0.00000000E+00
  0.00000000E+00  0.00000000E+00  0.00000000E+00
  0.00000000E+00  0.00000000E+00  0.00000000E+00
  0.00000000E+00  0.00000000E+00  0.00000000E+00
  0.00000000E+00  0.00000000E+00  0.00000000E+00
  0.00000000E+00  0.00000000E+00  0.00000000E+00
  0.00000000E+00  0.00000000E+00  0.00000000E+00
  0.00000000E+00  0.00000000E+00  0.00000000E+00
