KPOINTS from doped, with reciprocal_density = 510/Å⁻³
0
Gamma
13 13 4
