30.0% N(Distort)=2 ~[0.5,0.5,0.5]       
   1.00000000000000     
    12.5998379999999983    0.0000000000000004    0.0000000000000004
     0.0000000000000004   12.5998379999999983   -0.0000000000000004
    -0.0000000000000004   -0.0000000000000004   12.5998379999999983
   Mg   O 
   109   107
Direct
  0.6666598887620561  0.0004741227587149 -0.0000400918935519
  0.8331831043373640  0.1667669703808368  0.0001043576173363
  0.8331590912969223  0.0006038691452352  0.1662710217828740
  0.3324075965772142  0.0005965734986111  0.0000362422546779
  0.4997011363838861  0.1664969097849737 -0.0000579821721798
  0.6667768772155563  0.3330106162150414  0.9990624651063804
  0.8341211363575084  0.5005261555874806 -0.0015296776410699
  0.4996609506430913  0.0004874687073577  0.1659575823545788
  0.6667508592172033  0.1669240236826284  0.1664275714722583
  0.8336880815639717  0.3332341313977599  0.1662134200686848
  0.6667416787485356 -0.0004155121134808  0.3325157425838708
  0.8336922439611654  0.1667271064214021  0.3327315355020276
  0.8340928067958961 -0.0009982195379251  0.5000289205570297
 -0.0005383168541345  0.0005214612736086  0.0000375134018803
  0.1658543431396245  0.1669600470803609  0.0000947725493142
  0.3325033848652318  0.3335642368668599 -0.0008397920736902
  0.4996781804181110  0.5007611205046819 -0.0042474284206030
  0.6668302784719001  0.6679134077585593 -0.0018676646635484
  0.8330822576075350  0.8341216545002312  0.9996065064023567
  0.1658692838317435  0.0006073352102132  0.1664313646629008
  0.3325777307034156  0.1657787426535137  0.1652475015341091
  0.4998850945537816  0.3330569341775848  0.1631208484920645
  0.6727354494902034  0.5003561407149928  0.1587508159448924
  0.8336951255613887  0.6680139590476187  0.1654869272197517
  0.3324928979099454 -0.0002926813731080  0.3330476327556234
  0.4998745140614063  0.1636824233196954  0.3325410145177563
  0.6678742388623945  0.3336383445848543  0.3331148246123378
  0.8342706270305965  0.5008033202743086  0.3318040514613947
  0.4996758073365992 -0.0036858583440300  0.5002385670805712
  0.6727263991204893  0.1593001800915232  0.4998518783382702
  0.8342275080853553  0.3323839159886944  0.5002424466958294
  0.6668612111327044 -0.0013184333629998  0.6673916139935455
  0.8337141125406584  0.1660350270793647  0.6674646395133403
  0.8331039239712886  0.0001279382823653  0.8336170223281449
 -0.0005120998067809  0.3334600890167515  0.0000243139678540
  0.1654118892213576  0.5007369245691933 -0.0000809845884300
  0.3319482194625433  0.6678757415842346  0.9990249210073603
  0.4994587500812698  0.8352478408521844  0.9984640595727764
 -0.0004828096572903  0.1669392980071259  0.1664279820305342
  0.1647285352767580  0.3336493621036610  0.1652497501018069
  0.3320223828869314  0.5009683664017679  0.1630851750745856
  0.4993156389404388  0.6739126419301438  0.1587219337907153
  0.6669197708633264  0.8348147923538535  0.1654853291622959
 -0.0005377417395335  0.0005433094859542  0.3329586065984370
  0.1646887971628607  0.1657882759256223  0.3331342658871261
  0.3262707226785909  0.3273108622553336  0.3267665936572635
  0.5185084234417543  0.5197827856950881  0.3010495052007487
  0.6703478704162801  0.6714598236690953  0.3326216039174418
  0.8336447282260133  0.8347278589394589  0.3326693343197447
  0.1654158242624436  0.0004626223685969  0.5002121979240183
  0.3319964961416431  0.1636261306381914  0.5004474046291435
  0.5184154373600957  0.3016530781581918  0.5192182934327567
  0.6700426191725245  0.5004692972557127  0.4999181652810373
  0.8327500448036543  0.6678776824337564  0.4999862766837903
  0.3319389003271683 -0.0004005876988067  0.6673102006055897
  0.4993293029036309  0.1592727479810282  0.6733475718136792
  0.6703353346712017  0.3331654552460338  0.6708762049012983
  0.8327477274160247  0.5004974669408335  0.6673729157856816
  0.4995043394460886 -0.0009682263742896  0.8346898100380257
  0.6669730832851937  0.1660422405732102  0.8342579023988723
  0.8336720168343107  0.3331690481501256  0.8341917059594163
 -0.0005794813806957  0.6676987786902846 -0.0000371264420219
  0.1657259086632540  0.8342550243723170  0.0001064492194161
 -0.0005967926709114  0.5007199030224025  0.1659526096549594
  0.1658838437833726  0.6678225345745660  0.1664221180392527
  0.3321543064083904  0.8348174372621492  0.1661952902025602
  0.9986259996527602  0.3335607049764522  0.3330386606688262
  0.1626225862927692  0.5009575158103298  0.3325212802606619
  0.3325780887666013  0.6690660322486662  0.3330808215158441
  0.4997155554179377  0.8353712882507950  0.3318287460177352
 -0.0006086521120562  0.1664752806374379  0.5002230151733046
  0.1625985039112224  0.3330526806321435  0.5004417504327621
  0.3007795058428436  0.5195425667137925  0.5190351481608322
  0.4994037192160948  0.6711038124990191  0.4999266931486032
  0.6668435318624405  0.8337402787590518  0.5000040542660504
  0.9994127896243780  0.0004768703494461  0.6671743460518951
  0.1658804022593433  0.1669228396534480  0.6672932386610880
  0.3325851204196263  0.3336425324088973  0.6685361485030632
  0.4994243254828718  0.5004698336851852  0.6705523857549949
  0.6660206628379197  0.6670510588005137  0.6665306991350415
  0.8326351365527680  0.8336767460203983  0.6669846198232998
  0.1657028898444435  0.0006239092388035  0.8337651616330183
  0.3321582363368608  0.1667338637032642  0.8342535025334965
  0.4997278479619624  0.3323666781912509  0.8348238371671521
  0.6668413591053590  0.5004861330925323  0.8332351550943763
  0.8326301363900218  0.6674832405256275  0.8331561488922608
 -0.0004546258090725  0.8342443130759464  0.1662758007990015
 -0.0014738906570041  0.6678384800672511  0.3324806564572653
  0.1656415546503081  0.8348047875366503  0.3327218617741086
 -0.0046925124413590  0.5007341425409856  0.5002106720836302
  0.1583341332408429  0.6738127294593981  0.4998650807801656
  0.3313021400200301  0.8353251292048742  0.5002637387348223
 -0.0014743809568895  0.3330069868020691  0.6673053909467855
  0.1582934979146760  0.5003807664684665  0.6732579623697410
  0.3321036072344540  0.6714302553854853  0.6708589596309968
  0.4994696856922313  0.8337823489924330  0.6673841199313688
  0.9995456360362825  0.1667815311782102  0.8337385500505815
  0.1656597767797442  0.3332396636912330  0.8342341563663197
  0.3312747609077314  0.5008167749026370  0.8347986287272160
  0.4994563714930274  0.6679256564513384  0.8332465165173886
  0.6664563577811302  0.8336876909190826  0.8331683548201332
 -0.0020524535384387  0.8351880518197012  0.5000302484863789
  0.9976430378889537  0.6679007023573684  0.6673719318233687
  0.1649775122761015  0.8348196478288643  0.6674838367647535
 -0.0020572577689203  0.5005462338119101  0.8346659325391385
  0.1649688327947149  0.6680297366383808  0.8342558597902022
  0.3321043474609582  0.8347874022987364  0.8342082010508122
 -0.0009006567888794  0.8341274416747524  0.8336091753931641
  0.4419037777707497  0.4427433807673032  0.4421279774936442
  0.8326905327178210  0.1674784082049253  0.1669733999903822
 -0.0002012177657493  0.3339839154845309  0.1669099886623561
 -0.0002207940708943  0.1674534899412684  0.3334525511788993
  0.4993450661639866  0.1685579586813986  0.1680172061934462
  0.6651853344413309  0.3347483623995917  0.1670799859698148
  0.8339825020205530  0.5005349707072327  0.1653176955827557
 -0.0001408306539319  0.6672005764884744  0.1666569101254457
  0.6651941555366760  0.1676347722999120  0.3342405829482785
  0.8324899830417706  0.3338768598832657  0.3333153304160210
 -0.0013651196128971  0.5005622183123314  0.3327980232156035
  0.8339971022596557  0.1658593484785683  0.4999949513342951
 -0.0014034343019176  0.3333554848125820  0.5000199137882206
 -0.0001311375356942  0.1671748672346348  0.6666789422899257
  0.1667349837543567  0.1678551630919194  0.1673257924098102
  0.3336312476993102  0.3347199148643937  0.1667340494545036
  0.5002048663517961  0.5013094034282259  0.1557650921054983
  0.6654548092358632  0.6665720512046980  0.1657622886987018
  0.8327920174403378  0.8339078501055591  0.1663827453069661
 -0.0003229032767726  0.0007803628082747  0.1667850102992397
  0.3336103659968896  0.1672934440216011  0.3342082937555170
  0.4988983636096405  0.3399452415088430  0.3393953674153715
  0.6691000130925041  0.5017202106972477  0.3303600871125832
  0.8331482176654059  0.6675727968796100  0.3327132662401735
 -0.0003361649649252  0.8340041468475131  0.3332112044401195
  0.5001971627990965  0.1563242136832061  0.5007702578440429
  0.6690777131251237  0.3309225815750761  0.5011554707433158
  0.8319801501605999  0.5000256675953962  0.4994651426940299
 -0.0028995949420552  0.6680642225132133  0.4998577444086665
  0.6654658531712339  0.1663444441558015  0.6659997299846777
  0.8331661434800496  0.3332695806563006  0.6670020968872852
  0.9970815416218841  0.5003799576458481  0.6675700972996057
  0.8328339614551776  0.1669216445660317  0.8333631394324102
 -0.0003130398263535  0.3337366217180074  0.8334581222898649
 -0.0003278160332010  0.1672988286031324  0.0002708206057515
  0.1675141420804933  0.5004451430837922  0.1680190623928712
  0.3336652672337750  0.6663304081748631  0.1670639594590463
  0.4994125708412814  0.8351316503609824  0.1653194135860549
  0.6660821215304138  0.0009686707959873  0.1666657999381682
  0.1662374054075378  0.3347277999207897  0.3342167933061239
  0.3390403799931233  0.5000117750409491  0.3394461743753844
  0.5006077127492776  0.6703296629283205  0.3303607864229243
  0.6664658861226451  0.8342669700823963  0.3327146543903097
  0.8328674651429127  0.0007803174872449  0.3332183562575802
  0.1674809379681765  0.1685639904880744  0.4999141261159594
  0.3391305939984548  0.3400333868024402  0.4994991270729280
  0.6649567417068386  0.6660423953322672  0.4989091871206521
  0.8324267673483378  0.8335014419969852  0.4996928965838360
 -0.0002828718733678  0.0008135698356196  0.4999386017538969
  0.3336623974848131  0.1676487020675630  0.6657532931259538
  0.5006317867905027  0.3309258096275663  0.6697914655408690
  0.6649756522583751  0.4994468874067021  0.6654827830432692
  0.8318357542685541  0.6667698330628663  0.6662434682900552
 -0.0009392819317200  0.8339024431803483  0.6666237195331361
  0.4994596827811489  0.1658698769488703  0.8345763159604145
  0.6665019775251958  0.3332650297071004  0.8337008358494010
  0.8324325263170879  0.5002140317048802  0.8329838488041762
 -0.0009523918977481  0.6671871877606096  0.8333416393573380
  0.6661271896353033  0.1672001372030500  0.0004334152353109
  0.8329274991538178  0.3337246531498255  0.0002315181626917
 -0.0002711483880397  0.5004857619498726  0.0002655975274507
  0.1663789833840492  0.8338168510652616  0.1669548281499684
  0.3328673580285462  0.0009096679500019  0.1669186410859712
  0.1665674936795758  0.6662878533032358  0.3342247525353014
  0.3327586814798482  0.8336265853500698  0.3333008166260438
  0.4994519040923706 -0.0002981873617495  0.3328235307051650
  0.1553863775019242  0.5012625777776399  0.5007491746569518
  0.3298779191826701  0.6702133040431977  0.5011390302316067
  0.4989355057112712  0.8330504426098554  0.4994861369392256
  0.6670106011609205 -0.0019020217632049  0.4998667059196381
  0.1665623542417259  0.3347280161235611  0.6657240919320493
  0.3298594561843208  0.5016961676281158  0.6696971521563142
  0.4983687608099322  0.6660431425027998  0.6654921138161924
  0.6656961671950997  0.8328821028100166  0.6662681024029228
  0.8327927258561141  0.0001308941937236  0.6666321780638824
  0.1663559588710041  0.1674863782895160  0.8332971753645554
  0.3327448590405539  0.3338491996239027  0.8330554359211274
  0.4989286401240203  0.5000451685935993  0.8324720038029788
  0.6656854064259893  0.6667817565757266  0.8323392962412620
  0.8325937733383685  0.8336675957991851  0.8331421103733583
  0.9994879929922710  0.0005887865555345  0.8334363749389012
  0.3328827944099907  0.1674776309204928  0.0003489558070385
  0.4994654185736312  0.3333714113537151 -0.0008694451510423
  0.6670089009688098  0.5003885084813420  0.9975588579897209
  0.8327823884893147  0.6671689993479740 -0.0004120607946457
 -0.0004931394074498  0.8339625990946009  0.0000710362720964
  0.1663274778383871  0.0009094764119542  0.3334493285111403
  0.1648121946371051  0.8350833800022900  0.4999821022835916
  0.3322396333457808 -0.0003307725785717  0.5000386091479753
  0.1652692695182411  0.6665898029735238  0.6660220979044217
  0.3321866579811059  0.8342694242829445  0.6670188607619076
  0.4993113262595006 -0.0018643679795693  0.6675899556005676
  0.1647955135450211  0.5005375095133885  0.8345342455629758
  0.3321816715474099  0.6676239185830440  0.8336953035087464
  0.4991232022081939  0.8335637648881115  0.8329929704866508
  0.6661021892549667  0.0001477731230798  0.8333396755243229
  0.1663430211602681  0.3339964649332133  0.0003565766179259
  0.3322597098503517  0.5005727072576781  0.9991069847064327
  0.4992966264624138  0.6681490922306896 -0.0024432126913267
  0.6660691352348709  0.8338947782975591 -0.0004052670150374
  0.8328634977811785  0.0005763542274075  0.0000784738244262
  0.1660710172009560  0.0009702668716591  0.6666827215116623
  0.1658278624139027  0.8339520929504890  0.8333757261198804
  0.3326368331614742  0.0008198173718430  0.8334780300107735
  0.1660944699066635  0.6672224339701357  0.0004253850811134
  0.3326158122268199  0.8340744769871878  0.0002343133114276
  0.4993808992649837  0.0008571876431387  0.0002721886947784
  0.1661878676539385  0.0008086244444002  0.0002712259091965
 
  0.00000000E+00  0.00000000E+00  0.00000000E+00
  0.00000000E+00  0.00000000E+00  0.00000000E+00
  0.00000000E+00  0.00000000E+00  0.00000000E+00
  0.00000000E+00  0.00000000E+00  0.00000000E+00
  0.00000000E+00  0.00000000E+00  0.00000000E+00
  0.00000000E+00  0.00000000E+00  0.00000000E+00
  0.00000000E+00  0.00000000E+00  0.00000000E+00
  0.00000000E+00  0.00000000E+00  0.00000000E+00
  0.00000000E+00  0.00000000E+00  0.00000000E+00
  0.00000000E+00  0.00000000E+00  0.00000000E+00
  0.00000000E+00  0.00000000E+00  0.00000000E+00
  0.00000000E+00  0.00000000E+00  0.00000000E+00
  0.00000000E+00  0.00000000E+00  0.00000000E+00
  0.00000000E+00  0.00000000E+00  0.00000000E+00
  0.00000000E+00  0.00000000E+00  0.00000000E+00
  0.00000000E+00  0.00000000E+00  0.00000000E+00
  0.00000000E+00  0.00000000E+00  0.00000000E+00
  0.00000000E+00  0.00000000E+00  0.00000000E+00
  0.00000000E+00  0.00000000E+00  0.00000000E+00
  0.00000000E+00  0.00000000E+00  0.00000000E+00
  0.00000000E+00  0.00000000E+00  0.00000000E+00
  0.00000000E+00  0.00000000E+00  0.00000000E+00
  0.00000000E+00  0.00000000E+00  0.00000000E+00
  0.00000000E+00  0.00000000E+00  0.00000000E+00
  0.00000000E+00  0.00000000E+00  0.00000000E+00
  0.00000000E+00  0.00000000E+00  0.00000000E+00
  0.00000000E+00  0.00000000E+00  0.00000000E+00
  0.00000000E+00  0.00000000E+00  0.00000000E+00
  0.00000000E+00  0.00000000E+00  0.00000000E+00
  0.00000000E+00  0.00000000E+00  0.00000000E+00
  0.00000000E+00  0.00000000E+00  0.00000000E+00
  0.00000000E+00  0.00000000E+00  0.00000000E+00
  0.00000000E+00  0.00000000E+00  0.00000000E+00
  0.00000000E+00  0.00000000E+00  0.00000000E+00
  0.00000000E+00  0.00000000E+00  0.00000000E+00
  0.00000000E+00  0.00000000E+00  0.00000000E+00
  0.00000000E+00  0.00000000E+00  0.00000000E+00
  0.00000000E+00  0.00000000E+00  0.00000000E+00
  0.00000000E+00  0.00000000E+00  0.00000000E+00
  0.00000000E+00  0.00000000E+00  0.00000000E+00
  0.00000000E+00  0.00000000E+00  0.00000000E+00
  0.00000000E+00  0.00000000E+00  0.00000000E+00
  0.00000000E+00  0.00000000E+00  0.00000000E+00
  0.00000000E+00  0.00000000E+00  0.00000000E+00
  0.00000000E+00  0.00000000E+00  0.00000000E+00
  0.00000000E+00  0.00000000E+00  0.00000000E+00
  0.00000000E+00  0.00000000E+00  0.00000000E+00
  0.00000000E+00  0.00000000E+00  0.00000000E+00
  0.00000000E+00  0.00000000E+00  0.00000000E+00
  0.00000000E+00  0.00000000E+00  0.00000000E+00
  0.00000000E+00  0.00000000E+00  0.00000000E+00
  0.00000000E+00  0.00000000E+00  0.00000000E+00
  0.00000000E+00  0.00000000E+00  0.00000000E+00
  0.00000000E+00  0.00000000E+00  0.00000000E+00
  0.00000000E+00  0.00000000E+00  0.00000000E+00
  0.00000000E+00  0.00000000E+00  0.00000000E+00
  0.00000000E+00  0.00000000E+00  0.00000000E+00
  0.00000000E+00  0.00000000E+00  0.00000000E+00
  0.00000000E+00  0.00000000E+00  0.00000000E+00
  0.00000000E+00  0.00000000E+00  0.00000000E+00
  0.00000000E+00  0.00000000E+00  0.00000000E+00
  0.00000000E+00  0.00000000E+00  0.00000000E+00
  0.00000000E+00  0.00000000E+00  0.00000000E+00
  0.00000000E+00  0.00000000E+00  0.00000000E+00
  0.00000000E+00  0.00000000E+00  0.00000000E+00
  0.00000000E+00  0.00000000E+00  0.00000000E+00
  0.00000000E+00  0.00000000E+00  0.00000000E+00
  0.00000000E+00  0.00000000E+00  0.00000000E+00
  0.00000000E+00  0.00000000E+00  0.00000000E+00
  0.00000000E+00  0.00000000E+00  0.00000000E+00
  0.00000000E+00  0.00000000E+00  0.00000000E+00
  0.00000000E+00  0.00000000E+00  0.00000000E+00
  0.00000000E+00  0.00000000E+00  0.00000000E+00
  0.00000000E+00  0.00000000E+00  0.00000000E+00
  0.00000000E+00  0.00000000E+00  0.00000000E+00
  0.00000000E+00  0.00000000E+00  0.00000000E+00
  0.00000000E+00  0.00000000E+00  0.00000000E+00
  0.00000000E+00  0.00000000E+00  0.00000000E+00
  0.00000000E+00  0.00000000E+00  0.00000000E+00
  0.00000000E+00  0.00000000E+00  0.00000000E+00
  0.00000000E+00  0.00000000E+00  0.00000000E+00
  0.00000000E+00  0.00000000E+00  0.00000000E+00
  0.00000000E+00  0.00000000E+00  0.00000000E+00
  0.00000000E+00  0.00000000E+00  0.00000000E+00
  0.00000000E+00  0.00000000E+00  0.00000000E+00
  0.00000000E+00  0.00000000E+00  0.00000000E+00
  0.00000000E+00  0.00000000E+00  0.00000000E+00
  0.00000000E+00  0.00000000E+00  0.00000000E+00
  0.00000000E+00  0.00000000E+00  0.00000000E+00
  0.00000000E+00  0.00000000E+00  0.00000000E+00
  0.00000000E+00  0.00000000E+00  0.00000000E+00
  0.00000000E+00  0.00000000E+00  0.00000000E+00
  0.00000000E+00  0.00000000E+00  0.00000000E+00
  0.00000000E+00  0.00000000E+00  0.00000000E+00
  0.00000000E+00  0.00000000E+00  0.00000000E+00
  0.00000000E+00  0.00000000E+00  0.00000000E+00
  0.00000000E+00  0.00000000E+00  0.00000000E+00
  0.00000000E+00  0.00000000E+00  0.00000000E+00
  0.00000000E+00  0.00000000E+00  0.00000000E+00
  0.00000000E+00  0.00000000E+00  0.00000000E+00
  0.00000000E+00  0.00000000E+00  0.00000000E+00
  0.00000000E+00  0.00000000E+00  0.00000000E+00
  0.00000000E+00  0.00000000E+00  0.00000000E+00
  0.00000000E+00  0.00000000E+00  0.00000000E+00
  0.00000000E+00  0.00000000E+00  0.00000000E+00
  0.00000000E+00  0.00000000E+00  0.00000000E+00
  0.00000000E+00  0.00000000E+00  0.00000000E+00
  0.00000000E+00  0.00000000E+00  0.00000000E+00
  0.00000000E+00  0.00000000E+00  0.00000000E+00
  0.00000000E+00  0.00000000E+00  0.00000000E+00
  0.00000000E+00  0.00000000E+00  0.00000000E+00
  0.00000000E+00  0.00000000E+00  0.00000000E+00
  0.00000000E+00  0.00000000E+00  0.00000000E+00
  0.00000000E+00  0.00000000E+00  0.00000000E+00
  0.00000000E+00  0.00000000E+00  0.00000000E+00
  0.00000000E+00  0.00000000E+00  0.00000000E+00
  0.00000000E+00  0.00000000E+00  0.00000000E+00
  0.00000000E+00  0.00000000E+00  0.00000000E+00
  0.00000000E+00  0.00000000E+00  0.00000000E+00
  0.00000000E+00  0.00000000E+00  0.00000000E+00
  0.00000000E+00  0.00000000E+00  0.00000000E+00
  0.00000000E+00  0.00000000E+00  0.00000000E+00
  0.00000000E+00  0.00000000E+00  0.00000000E+00
  0.00000000E+00  0.00000000E+00  0.00000000E+00
  0.00000000E+00  0.00000000E+00  0.00000000E+00
  0.00000000E+00  0.00000000E+00  0.00000000E+00
  0.00000000E+00  0.00000000E+00  0.00000000E+00
  0.00000000E+00  0.00000000E+00  0.00000000E+00
  0.00000000E+00  0.00000000E+00  0.00000000E+00
  0.00000000E+00  0.00000000E+00  0.00000000E+00
  0.00000000E+00  0.00000000E+00  0.00000000E+00
  0.00000000E+00  0.00000000E+00  0.00000000E+00
  0.00000000E+00  0.00000000E+00  0.00000000E+00
  0.00000000E+00  0.00000000E+00  0.00000000E+00
  0.00000000E+00  0.00000000E+00  0.00000000E+00
  0.00000000E+00  0.00000000E+00  0.00000000E+00
  0.00000000E+00  0.00000000E+00  0.00000000E+00
  0.00000000E+00  0.00000000E+00  0.00000000E+00
  0.00000000E+00  0.00000000E+00  0.00000000E+00
  0.00000000E+00  0.00000000E+00  0.00000000E+00
  0.00000000E+00  0.00000000E+00  0.00000000E+00
  0.00000000E+00  0.00000000E+00  0.00000000E+00
  0.00000000E+00  0.00000000E+00  0.00000000E+00
  0.00000000E+00  0.00000000E+00  0.00000000E+00
  0.00000000E+00  0.00000000E+00  0.00000000E+00
  0.00000000E+00  0.00000000E+00  0.00000000E+00
  0.00000000E+00  0.00000000E+00  0.00000000E+00
  0.00000000E+00  0.00000000E+00  0.00000000E+00
  0.00000000E+00  0.00000000E+00  0.00000000E+00
  0.00000000E+00  0.00000000E+00  0.00000000E+00
  0.00000000E+00  0.00000000E+00  0.00000000E+00
  0.00000000E+00  0.00000000E+00  0.00000000E+00
  0.00000000E+00  0.00000000E+00  0.00000000E+00
  0.00000000E+00  0.00000000E+00  0.00000000E+00
  0.00000000E+00  0.00000000E+00  0.00000000E+00
  0.00000000E+00  0.00000000E+00  0.00000000E+00
  0.00000000E+00  0.00000000E+00  0.00000000E+00
  0.00000000E+00  0.00000000E+00  0.00000000E+00
  0.00000000E+00  0.00000000E+00  0.00000000E+00
  0.00000000E+00  0.00000000E+00  0.00000000E+00
  0.00000000E+00  0.00000000E+00  0.00000000E+00
  0.00000000E+00  0.00000000E+00  0.00000000E+00
  0.00000000E+00  0.00000000E+00  0.00000000E+00
  0.00000000E+00  0.00000000E+00  0.00000000E+00
  0.00000000E+00  0.00000000E+00  0.00000000E+00
  0.00000000E+00  0.00000000E+00  0.00000000E+00
  0.00000000E+00  0.00000000E+00  0.00000000E+00
  0.00000000E+00  0.00000000E+00  0.00000000E+00
  0.00000000E+00  0.00000000E+00  0.00000000E+00
  0.00000000E+00  0.00000000E+00  0.00000000E+00
  0.00000000E+00  0.00000000E+00  0.00000000E+00
  0.00000000E+00  0.00000000E+00  0.00000000E+00
  0.00000000E+00  0.00000000E+00  0.00000000E+00
  0.00000000E+00  0.00000000E+00  0.00000000E+00
  0.00000000E+00  0.00000000E+00  0.00000000E+00
  0.00000000E+00  0.00000000E+00  0.00000000E+00
  0.00000000E+00  0.00000000E+00  0.00000000E+00
  0.00000000E+00  0.00000000E+00  0.00000000E+00
  0.00000000E+00  0.00000000E+00  0.00000000E+00
  0.00000000E+00  0.00000000E+00  0.00000000E+00
  0.00000000E+00  0.00000000E+00  0.00000000E+00
  0.00000000E+00  0.00000000E+00  0.00000000E+00
  0.00000000E+00  0.00000000E+00  0.00000000E+00
  0.00000000E+00  0.00000000E+00  0.00000000E+00
  0.00000000E+00  0.00000000E+00  0.00000000E+00
  0.00000000E+00  0.00000000E+00  0.00000000E+00
  0.00000000E+00  0.00000000E+00  0.00000000E+00
  0.00000000E+00  0.00000000E+00  0.00000000E+00
  0.00000000E+00  0.00000000E+00  0.00000000E+00
  0.00000000E+00  0.00000000E+00  0.00000000E+00
  0.00000000E+00  0.00000000E+00  0.00000000E+00
  0.00000000E+00  0.00000000E+00  0.00000000E+00
  0.00000000E+00  0.00000000E+00  0.00000000E+00
  0.00000000E+00  0.00000000E+00  0.00000000E+00
  0.00000000E+00  0.00000000E+00  0.00000000E+00
  0.00000000E+00  0.00000000E+00  0.00000000E+00
  0.00000000E+00  0.00000000E+00  0.00000000E+00
  0.00000000E+00  0.00000000E+00  0.00000000E+00
  0.00000000E+00  0.00000000E+00  0.00000000E+00
  0.00000000E+00  0.00000000E+00  0.00000000E+00
  0.00000000E+00  0.00000000E+00  0.00000000E+00
  0.00000000E+00  0.00000000E+00  0.00000000E+00
  0.00000000E+00  0.00000000E+00  0.00000000E+00
  0.00000000E+00  0.00000000E+00  0.00000000E+00
  0.00000000E+00  0.00000000E+00  0.00000000E+00
  0.00000000E+00  0.00000000E+00  0.00000000E+00
  0.00000000E+00  0.00000000E+00  0.00000000E+00
  0.00000000E+00  0.00000000E+00  0.00000000E+00
  0.00000000E+00  0.00000000E+00  0.00000000E+00
  0.00000000E+00  0.00000000E+00  0.00000000E+00
  0.00000000E+00  0.00000000E+00  0.00000000E+00
  0.00000000E+00  0.00000000E+00  0.00000000E+00
  0.00000000E+00  0.00000000E+00  0.00000000E+00
  0.00000000E+00  0.00000000E+00  0.00000000E+00
  0.00000000E+00  0.00000000E+00  0.00000000E+00
  0.00000000E+00  0.00000000E+00  0.00000000E+00
