KPOINTS from doped, with reciprocal_density = 80/Å⁻³
0
Gamma
3 3 3
