-20.0% N(Distort)=2 ~[0.5,0.5,0.5]      
   1.00000000000000     
    12.5998379999999983    0.0000000000000004    0.0000000000000004
     0.0000000000000004   12.5998379999999983   -0.0000000000000004
    -0.0000000000000004   -0.0000000000000004   12.5998379999999983
   Mg   O 
   109   107
Direct
  0.6664989858304818 -0.0005263002559960  0.0005623282585052
  0.8331631520033171  0.1657665157660836  0.0006338095552542
  0.8330187342038924 -0.0005615009506461  0.1669498134807824
  0.3322745811849934 -0.0004718023230053  0.0004762433009219
  0.4993926558281460  0.1648052290832994 -0.0009814874101551
  0.6669227514630633  0.3321888816190628  0.9996294937588638
  0.8334854401102296  0.4992785413993117  0.0005048919734163
  0.4992517000978404  0.9995608815373471  0.1664901430374191
  0.6667253161477341  0.1652684009199620  0.1667339805284806
  0.8330401204273044  0.3321991099223999  0.1669518783361591
  0.6664403885301138  0.0003154925992448  0.3335682579225430
  0.8332540870887996  0.1652562235429750  0.3332653879161558
  0.8335242728968518 -0.0004415226134087  0.5007404449400046
  0.9994441690785558 -0.0005362964024652  0.0005197714405403
  0.1658289882631154  0.1658655012096937  0.0001382516941598
  0.3320267424965928  0.3320844070850666 -0.0013072059876352
  0.4992139788455071  0.4992531734395889  0.9963720494653825
  0.6664197589456763  0.6664738428800389 -0.0002542909636028
  0.8330249860152393  0.8330729713040530  0.0006139743735659
  0.1657263756301371 -0.0006174810859450  0.1667950307729695
  0.3319225520887303  0.1651880091682198  0.1660495538542272
  0.4995679736240754  0.3261431932232197  0.1593096133279115
  0.6669081921183828  0.4990481172806727  0.1637230396561779
  0.8341788379617341  0.6663704917929429  0.1658188134429227
  0.3321607802565275  0.0003773030462418  0.3330367051634914
  0.4991820168679094  0.1646363140427068  0.3323650403838393
  0.6663251555840484  0.3309840441021334  0.3336646581207080
  0.8362955122299474  0.4990668850668045  0.3331037578598806
  0.4992378603309429  0.0036505252393419  0.5007535270529955
  0.6676082135675678  0.1646536439408735  0.5008173305952394
  0.8406476422742443  0.3261687655237461  0.5004069899599933
  0.6669735916309565  0.0003971757506843  0.6678288900048411
  0.8339473022910462  0.1652085946912547  0.6680513519765526
  0.8331967121837769 -0.0006056540880723  0.8342514710928221
 -0.0005213923262642  0.3323058167915745  0.0004955919814671
  0.1647506604952104  0.4994542287725341 -0.0009743793553241
  0.3321434406806262  0.6669977407396598 -0.0003769560876362
  0.4992527778762272  0.8335342638743700  0.0004821644782563
 -0.0006597001158660  0.1657578488059650  0.1667974246842795
  0.1651305553649471  0.3319704184376531  0.1660731750995404
  0.3260779941328277  0.4996481286739417  0.1593137878703212
  0.4990132247111222  0.6669561633020141  0.1636982655469159
  0.6663283469724653  0.8342458484700639  0.1658136156462327
  0.9994140652184914 -0.0005543252227440  0.3334718791665783
  0.1651982684590589  0.1652284011475426  0.3332099197059191
  0.3284899981247755  0.3285289479448268  0.3331561612627522
  0.4802389768437071  0.4803215592071696  0.3016874129472206
  0.6726942572904683  0.6727364238218262  0.3272958128597839
  0.8341833458099287  0.8342495843543846  0.3336714059439013
  0.1647726744486900  0.0009718062872971  0.5005538154410184
  0.3320726493539257  0.1662042505037120  0.5005096666479456
  0.4995218028442258  0.3288990635075851  0.5004733072290385
  0.6982470326850931  0.4804368815148451  0.5197513779334059
  0.8363333220792828  0.6669620667781067  0.5009899384418978
  0.3320662779264606  0.0012932366547425  0.6679140021582037
  0.4994726411893847  0.1662162369303072  0.6679007231669940
  0.6668153681614160  0.3285753908028337  0.6714761628273652
  0.8406759141692626  0.4996421238205620  0.6738920888825130
  0.4994215781139971  0.0009994240329839  0.8352080830946333
  0.6667671244509945  0.1652486336737711  0.8347718520502324
  0.8339125544700822  0.3319765015664969  0.8348289585392170
 -0.0005910753527377  0.6665385439993221  0.0005811498344151
  0.1657242120945705  0.8332151026491056  0.0006204376271178
 -0.0005024719704686  0.4992862865779190  0.1665113023805092
  0.1651761933487211  0.6667834089923583  0.1667473907766173
  0.3321732234322419  0.8330752686472488  0.1669367076748723
  0.0003489749808593  0.3321836299305799  0.3330585990058711
  0.1645905137008839  0.4992047411561892  0.3323758234548579
  0.3309402943507669  0.6663766572682953  0.3336454251695358
  0.4990355385799446  0.8363315742148156  0.3330744551749668
  0.0009691753349420  0.1647895093840569  0.5005702037182851
  0.1661955055264729  0.3320999649589346  0.5005180539414785
  0.3288948601547472  0.4995430582770883  0.5004687965299435
  0.4804219086515387  0.6982849366509056  0.5196962584871297
  0.6669372891880269  0.8363672036731880  0.5009917292507136
  0.9995191016629849 -0.0004634691268899  0.6677020034530839
  0.1663137202074782  0.1663171247401341  0.6674804768566247
  0.3329473484980107  0.3329468925133856  0.6670592203184453
  0.4995492083232357  0.4995703035522464  0.6711577057574676
  0.6663606220221207  0.6663857696089269  0.6691116245212697
  0.8330702987156259  0.8330744121983654  0.6678357495309001
  0.1658551490638136 -0.0001268776396653  0.8341278458272482
  0.3324956600659432  0.1663211468234062  0.8336793050267761
  0.4994654585026664  0.3320934635157604  0.8337993035528157
  0.6676117079697789  0.4992125215071999  0.8354295652409108
  0.8332659557907153  0.6667684609952562  0.8348364857569693
 -0.0006330389194797  0.8330795821872174  0.1669553402169879
  0.0002599271544383  0.6664864621485174  0.3335643050647381
  0.1652136920286839  0.8332792231813130  0.3332448216052160
  0.0036243358218964  0.4992537696146618  0.5007703026970982
  0.1646320135927146  0.6676296951995083  0.5008090286215412
  0.3261612983491772  0.8406673243619306  0.5003947015969298
  0.0012876722841768  0.3320832074590468  0.6679359735379909
  0.1662129826995044  0.4994931077967413  0.6679318060927510
  0.3285726684611211  0.6668504871330715  0.6714685027416400
  0.4996242948350530  0.8406982996228545  0.6738749140956389
 -0.0001590941703309  0.1658689397618467  0.8341435493490182
  0.1662914522514550  0.3325138904593916  0.8336891406418343
  0.3320763860026161  0.4994967701360625  0.8338110796816083
  0.4991922574569112  0.6676558338800030  0.8354171349180159
  0.6667620428891043  0.8332867260677881  0.8348155734249842
 -0.0004640430351950  0.8335297129464055  0.5007377154644924
  0.0003896627894466  0.6669910901342674  0.6678386191723665
  0.1651841444238097  0.8339501034385295  0.6680423945050159
  0.0009684186481894  0.4994549356497689  0.8352370056270201
  0.1652246756936782  0.6668021499951984  0.8347816380026057
  0.3319599900417244  0.8339555354995181  0.8348122619386555
 -0.0006289702674446  0.8332232016235196  0.8342310147369438
  0.5572222338073185  0.5572438170011680  0.4426478782467439
  0.8324800207406693  0.1662166814172634  0.1674986349641154
 -0.0009923551363463  0.3327928348355427  0.1672223788454174
  0.9991808889233961  0.1659850442677039  0.3337615792299696
  0.4994236193598209  0.1649025215576025  0.1658911931713199
  0.6652003339774611  0.3337083395208311  0.1676748983697177
  0.8314113977397208  0.4995604526389126  0.1686004561797905
 -0.0009314863565183  0.6660316299552167  0.1674789821052504
  0.6661231195080868  0.1663823739191057  0.3338777070991303
  0.8323195167088270  0.3337087250152321  0.3347895487876658
  0.0002408567462669  0.4994628401502902  0.3333844819419232
  0.8341058570106479  0.1649165577368666  0.5005634074706879
  0.0018205186090202  0.3318877294612568  0.5004272354371354
 -0.0001665061425853  0.1661264006507589  0.6671827008792428
  0.1660194200851776  0.1660593673371913  0.1669539990533431
  0.3333617995644343  0.3334245708055222  0.1663863731696946
  0.4986522560472194  0.4987098470719866  0.1563529969760962
  0.6652496970716018  0.6653175150782927  0.1673041175585959
  0.8321161649809917  0.8321807933244662  0.1678566875618562
  0.9991819683759227 -0.0007852428444521  0.1672966071841254
  0.3323841422227210  0.1657053308306502  0.3332725429390236
  0.4982728810592978  0.3297429881425911  0.3309431185221531
  0.6599859736841800  0.5000328486116294  0.3399811950244120
  0.8326903729390608  0.6653301797244414  0.3347378605047202
 -0.0009166564911466  0.8325840298950214  0.3339956440784038
  0.4999496162058764  0.1669098700914321  0.5000341955394995
  0.6690158732873223  0.3298064184753339  0.5017194122120677
  0.8436120997292473  0.4987342366402469  0.5013453845476138
  0.0002755178491733  0.6666599247135785  0.5005699603937210
  0.6667014605833510  0.1657404870574647  0.6676033139587785
  0.8335928264543955  0.3334217075943642  0.6666049653030303
  0.0018412264617641  0.4996198858807329  0.6681459867695977
  0.8330196887000544  0.1660883258912181  0.8339519017816843
 -0.0001958195111676  0.3328332554213007  0.8339080304676252
 -0.0006410027701323  0.1660343457450709  0.0006108347985075
  0.1648455581026709  0.4994853982708552  0.1658969096827215
  0.3336584791964543  0.6652715911648617  0.1676446406435451
  0.4995288798638822  0.8314671218374707  0.1685719908349760
  0.6659880289287659 -0.0008574675075806  0.1674576327479882
  0.1656718933318662  0.3323962043527971  0.3332953951889626
  0.3296641488665392  0.4983072810431067  0.3309404135707574
  0.4999643193448617  0.6600057568729031  0.3399768428190302
  0.6652756956346886  0.8327454447612986  0.3347366695264855
  0.8325339376443451 -0.0008611610345103  0.3339903055967179
  0.1664550660624020  0.1664699254648173  0.5002280792448506
  0.3339427180461392  0.3339613534950185  0.4994504901246017
  0.6599438820342911  0.6599751203310668  0.5000497675288912
  0.8314235379044042  0.8314577745374000  0.5004735002695480
  0.9991571606711753 -0.0008157423969930  0.5004921699416131
  0.3332099408290963  0.1670937157414428  0.6667759545445953
  0.5005380163724660  0.3339824388242358  0.6660473833168373
  0.6690449356208120  0.4983262303574879  0.6703348492528594
  0.8323507082224176  0.6652716232030641  0.6663478106548721
 -0.0009691332069703  0.8328113602885094  0.6672268767795395
  0.4997491948691039  0.1664865586626976  0.8335223306977805
  0.6666832809503697  0.3324110272132950  0.8343074273255882
  0.8341097716682182  0.4994854165125597  0.8351364261922146
 -0.0007967514361542  0.6662602485316285  0.8340527917918550
  0.6662097018417942  0.1659897448271530  0.0008004929141804
  0.8327658458659114  0.3327952387268692  0.0009821204711864
 -0.0008644673974020  0.4995266795537959  0.0008523390801998
  0.1661606251128422  0.8325320000451140  0.1674931616918237
  0.3327547968876167 -0.0009551855223317  0.1671993973387457
  0.1663427959294474  0.6661586901225888  0.3338658981493574
  0.3336832394913432  0.8323595133885245  0.3347587150019546
  0.4994327325258069  0.0002784070402304  0.3333637393965715
  0.1669058216230915  0.4999595998392986  0.5000495546384347
  0.3297670239196218  0.6690503265354939  0.5017014156698800
  0.4987099799039612  0.8436309503986875  0.5013133825817100
  0.6666416693241005  0.0003031778588970  0.5005784155296293
  0.1670812705289521  0.3332249557651661  0.6667858398815891
  0.3339771855067831  0.5005639632734905  0.6660624561225980
  0.4983163878598227  0.6690731327806625  0.6703302772140624
  0.6652446237206519  0.8323649913646446  0.6663381286066065
  0.8328138084212767 -0.0009488481643589  0.6672433958269633
  0.1663071364953850  0.1663355970297714  0.8336656981617607
  0.3331837004537471  0.3332153666575400  0.8329130627191647
  0.4999505761295530  0.4999826178346496  0.8331251648320881
  0.6661408169667143  0.6661562336384330  0.8336891120969221
  0.8325044004354927  0.8325214028911447  0.8338385834405032
 -0.0006227540151068 -0.0005995717288340  0.8339583862375458
  0.3327788511755305  0.1661046274137095  0.0001686971876500
  0.4995465094943426  0.3318780955862366  0.9981567214385459
  0.6666178138888016  0.4994560790663237 -0.0002281270629516
  0.8325185451342483  0.6660230852028403  0.0009241311825244
 -0.0008192295096325  0.8327061210052905  0.0007850553625487
  0.1659619834225491 -0.0007956820807336  0.3337533904450572
  0.1649006212565888  0.8341240806751796  0.5005531843042027
  0.3318580599611473  0.0018311390354487  0.5003957456290302
  0.1657216214061630  0.6667241059063198  0.6675953858708444
  0.3334209919102787  0.8336140628618882  0.6665860335634768
  0.4995892326199470  0.0018569198005135  0.6681085283461693
  0.1664477340219427  0.4997879641364448  0.8335429860770018
  0.3323798706041962  0.6667377245806976  0.8343115776033055
  0.4994523585066220  0.8341392601868539  0.8351123227236265
  0.6662302202767508 -0.0007762339007864  0.8340241547558180
  0.1660601922963140  0.3328177838536702  0.0001636365804629
  0.3318311604114320  0.4996145716916203 -0.0018367256441851
  0.4994169959997278  0.6666604316907900 -0.0002659862125536
  0.6659943132701976  0.8325862283236635  0.0009144182492747
  0.8326786385272752 -0.0007759770606725  0.0007914730641503
  0.1661056703569177 -0.0001514605511965  0.6671819138699312
  0.1660610566666434  0.8330600563750450  0.8339326795117212
  0.3328034100950747 -0.0001445698797763  0.8338751226013777
  0.1659344814544248  0.6662710287342732  0.0008181864078693
  0.3327554597727666  0.8328256185608417  0.0009658536706548
  0.4994724145512405  0.9991879167444694  0.0008229318539827
  0.1660170106190667 -0.0006046188505870  0.0006001186619200
 
  0.00000000E+00  0.00000000E+00  0.00000000E+00
  0.00000000E+00  0.00000000E+00  0.00000000E+00
  0.00000000E+00  0.00000000E+00  0.00000000E+00
  0.00000000E+00  0.00000000E+00  0.00000000E+00
  0.00000000E+00  0.00000000E+00  0.00000000E+00
  0.00000000E+00  0.00000000E+00  0.00000000E+00
  0.00000000E+00  0.00000000E+00  0.00000000E+00
  0.00000000E+00  0.00000000E+00  0.00000000E+00
  0.00000000E+00  0.00000000E+00  0.00000000E+00
  0.00000000E+00  0.00000000E+00  0.00000000E+00
  0.00000000E+00  0.00000000E+00  0.00000000E+00
  0.00000000E+00  0.00000000E+00  0.00000000E+00
  0.00000000E+00  0.00000000E+00  0.00000000E+00
  0.00000000E+00  0.00000000E+00  0.00000000E+00
  0.00000000E+00  0.00000000E+00  0.00000000E+00
  0.00000000E+00  0.00000000E+00  0.00000000E+00
  0.00000000E+00  0.00000000E+00  0.00000000E+00
  0.00000000E+00  0.00000000E+00  0.00000000E+00
  0.00000000E+00  0.00000000E+00  0.00000000E+00
  0.00000000E+00  0.00000000E+00  0.00000000E+00
  0.00000000E+00  0.00000000E+00  0.00000000E+00
  0.00000000E+00  0.00000000E+00  0.00000000E+00
  0.00000000E+00  0.00000000E+00  0.00000000E+00
  0.00000000E+00  0.00000000E+00  0.00000000E+00
  0.00000000E+00  0.00000000E+00  0.00000000E+00
  0.00000000E+00  0.00000000E+00  0.00000000E+00
  0.00000000E+00  0.00000000E+00  0.00000000E+00
  0.00000000E+00  0.00000000E+00  0.00000000E+00
  0.00000000E+00  0.00000000E+00  0.00000000E+00
  0.00000000E+00  0.00000000E+00  0.00000000E+00
  0.00000000E+00  0.00000000E+00  0.00000000E+00
  0.00000000E+00  0.00000000E+00  0.00000000E+00
  0.00000000E+00  0.00000000E+00  0.00000000E+00
  0.00000000E+00  0.00000000E+00  0.00000000E+00
  0.00000000E+00  0.00000000E+00  0.00000000E+00
  0.00000000E+00  0.00000000E+00  0.00000000E+00
  0.00000000E+00  0.00000000E+00  0.00000000E+00
  0.00000000E+00  0.00000000E+00  0.00000000E+00
  0.00000000E+00  0.00000000E+00  0.00000000E+00
  0.00000000E+00  0.00000000E+00  0.00000000E+00
  0.00000000E+00  0.00000000E+00  0.00000000E+00
  0.00000000E+00  0.00000000E+00  0.00000000E+00
  0.00000000E+00  0.00000000E+00  0.00000000E+00
  0.00000000E+00  0.00000000E+00  0.00000000E+00
  0.00000000E+00  0.00000000E+00  0.00000000E+00
  0.00000000E+00  0.00000000E+00  0.00000000E+00
  0.00000000E+00  0.00000000E+00  0.00000000E+00
  0.00000000E+00  0.00000000E+00  0.00000000E+00
  0.00000000E+00  0.00000000E+00  0.00000000E+00
  0.00000000E+00  0.00000000E+00  0.00000000E+00
  0.00000000E+00  0.00000000E+00  0.00000000E+00
  0.00000000E+00  0.00000000E+00  0.00000000E+00
  0.00000000E+00  0.00000000E+00  0.00000000E+00
  0.00000000E+00  0.00000000E+00  0.00000000E+00
  0.00000000E+00  0.00000000E+00  0.00000000E+00
  0.00000000E+00  0.00000000E+00  0.00000000E+00
  0.00000000E+00  0.00000000E+00  0.00000000E+00
  0.00000000E+00  0.00000000E+00  0.00000000E+00
  0.00000000E+00  0.00000000E+00  0.00000000E+00
  0.00000000E+00  0.00000000E+00  0.00000000E+00
  0.00000000E+00  0.00000000E+00  0.00000000E+00
  0.00000000E+00  0.00000000E+00  0.00000000E+00
  0.00000000E+00  0.00000000E+00  0.00000000E+00
  0.00000000E+00  0.00000000E+00  0.00000000E+00
  0.00000000E+00  0.00000000E+00  0.00000000E+00
  0.00000000E+00  0.00000000E+00  0.00000000E+00
  0.00000000E+00  0.00000000E+00  0.00000000E+00
  0.00000000E+00  0.00000000E+00  0.00000000E+00
  0.00000000E+00  0.00000000E+00  0.00000000E+00
  0.00000000E+00  0.00000000E+00  0.00000000E+00
  0.00000000E+00  0.00000000E+00  0.00000000E+00
  0.00000000E+00  0.00000000E+00  0.00000000E+00
  0.00000000E+00  0.00000000E+00  0.00000000E+00
  0.00000000E+00  0.00000000E+00  0.00000000E+00
  0.00000000E+00  0.00000000E+00  0.00000000E+00
  0.00000000E+00  0.00000000E+00  0.00000000E+00
  0.00000000E+00  0.00000000E+00  0.00000000E+00
  0.00000000E+00  0.00000000E+00  0.00000000E+00
  0.00000000E+00  0.00000000E+00  0.00000000E+00
  0.00000000E+00  0.00000000E+00  0.00000000E+00
  0.00000000E+00  0.00000000E+00  0.00000000E+00
  0.00000000E+00  0.00000000E+00  0.00000000E+00
  0.00000000E+00  0.00000000E+00  0.00000000E+00
  0.00000000E+00  0.00000000E+00  0.00000000E+00
  0.00000000E+00  0.00000000E+00  0.00000000E+00
  0.00000000E+00  0.00000000E+00  0.00000000E+00
  0.00000000E+00  0.00000000E+00  0.00000000E+00
  0.00000000E+00  0.00000000E+00  0.00000000E+00
  0.00000000E+00  0.00000000E+00  0.00000000E+00
  0.00000000E+00  0.00000000E+00  0.00000000E+00
  0.00000000E+00  0.00000000E+00  0.00000000E+00
  0.00000000E+00  0.00000000E+00  0.00000000E+00
  0.00000000E+00  0.00000000E+00  0.00000000E+00
  0.00000000E+00  0.00000000E+00  0.00000000E+00
  0.00000000E+00  0.00000000E+00  0.00000000E+00
  0.00000000E+00  0.00000000E+00  0.00000000E+00
  0.00000000E+00  0.00000000E+00  0.00000000E+00
  0.00000000E+00  0.00000000E+00  0.00000000E+00
  0.00000000E+00  0.00000000E+00  0.00000000E+00
  0.00000000E+00  0.00000000E+00  0.00000000E+00
  0.00000000E+00  0.00000000E+00  0.00000000E+00
  0.00000000E+00  0.00000000E+00  0.00000000E+00
  0.00000000E+00  0.00000000E+00  0.00000000E+00
  0.00000000E+00  0.00000000E+00  0.00000000E+00
  0.00000000E+00  0.00000000E+00  0.00000000E+00
  0.00000000E+00  0.00000000E+00  0.00000000E+00
  0.00000000E+00  0.00000000E+00  0.00000000E+00
  0.00000000E+00  0.00000000E+00  0.00000000E+00
  0.00000000E+00  0.00000000E+00  0.00000000E+00
  0.00000000E+00  0.00000000E+00  0.00000000E+00
  0.00000000E+00  0.00000000E+00  0.00000000E+00
  0.00000000E+00  0.00000000E+00  0.00000000E+00
  0.00000000E+00  0.00000000E+00  0.00000000E+00
  0.00000000E+00  0.00000000E+00  0.00000000E+00
  0.00000000E+00  0.00000000E+00  0.00000000E+00
  0.00000000E+00  0.00000000E+00  0.00000000E+00
  0.00000000E+00  0.00000000E+00  0.00000000E+00
  0.00000000E+00  0.00000000E+00  0.00000000E+00
  0.00000000E+00  0.00000000E+00  0.00000000E+00
  0.00000000E+00  0.00000000E+00  0.00000000E+00
  0.00000000E+00  0.00000000E+00  0.00000000E+00
  0.00000000E+00  0.00000000E+00  0.00000000E+00
  0.00000000E+00  0.00000000E+00  0.00000000E+00
  0.00000000E+00  0.00000000E+00  0.00000000E+00
  0.00000000E+00  0.00000000E+00  0.00000000E+00
  0.00000000E+00  0.00000000E+00  0.00000000E+00
  0.00000000E+00  0.00000000E+00  0.00000000E+00
  0.00000000E+00  0.00000000E+00  0.00000000E+00
  0.00000000E+00  0.00000000E+00  0.00000000E+00
  0.00000000E+00  0.00000000E+00  0.00000000E+00
  0.00000000E+00  0.00000000E+00  0.00000000E+00
  0.00000000E+00  0.00000000E+00  0.00000000E+00
  0.00000000E+00  0.00000000E+00  0.00000000E+00
  0.00000000E+00  0.00000000E+00  0.00000000E+00
  0.00000000E+00  0.00000000E+00  0.00000000E+00
  0.00000000E+00  0.00000000E+00  0.00000000E+00
  0.00000000E+00  0.00000000E+00  0.00000000E+00
  0.00000000E+00  0.00000000E+00  0.00000000E+00
  0.00000000E+00  0.00000000E+00  0.00000000E+00
  0.00000000E+00  0.00000000E+00  0.00000000E+00
  0.00000000E+00  0.00000000E+00  0.00000000E+00
  0.00000000E+00  0.00000000E+00  0.00000000E+00
  0.00000000E+00  0.00000000E+00  0.00000000E+00
  0.00000000E+00  0.00000000E+00  0.00000000E+00
  0.00000000E+00  0.00000000E+00  0.00000000E+00
  0.00000000E+00  0.00000000E+00  0.00000000E+00
  0.00000000E+00  0.00000000E+00  0.00000000E+00
  0.00000000E+00  0.00000000E+00  0.00000000E+00
  0.00000000E+00  0.00000000E+00  0.00000000E+00
  0.00000000E+00  0.00000000E+00  0.00000000E+00
  0.00000000E+00  0.00000000E+00  0.00000000E+00
  0.00000000E+00  0.00000000E+00  0.00000000E+00
  0.00000000E+00  0.00000000E+00  0.00000000E+00
  0.00000000E+00  0.00000000E+00  0.00000000E+00
  0.00000000E+00  0.00000000E+00  0.00000000E+00
  0.00000000E+00  0.00000000E+00  0.00000000E+00
  0.00000000E+00  0.00000000E+00  0.00000000E+00
  0.00000000E+00  0.00000000E+00  0.00000000E+00
  0.00000000E+00  0.00000000E+00  0.00000000E+00
  0.00000000E+00  0.00000000E+00  0.00000000E+00
  0.00000000E+00  0.00000000E+00  0.00000000E+00
  0.00000000E+00  0.00000000E+00  0.00000000E+00
  0.00000000E+00  0.00000000E+00  0.00000000E+00
  0.00000000E+00  0.00000000E+00  0.00000000E+00
  0.00000000E+00  0.00000000E+00  0.00000000E+00
  0.00000000E+00  0.00000000E+00  0.00000000E+00
  0.00000000E+00  0.00000000E+00  0.00000000E+00
  0.00000000E+00  0.00000000E+00  0.00000000E+00
  0.00000000E+00  0.00000000E+00  0.00000000E+00
  0.00000000E+00  0.00000000E+00  0.00000000E+00
  0.00000000E+00  0.00000000E+00  0.00000000E+00
  0.00000000E+00  0.00000000E+00  0.00000000E+00
  0.00000000E+00  0.00000000E+00  0.00000000E+00
  0.00000000E+00  0.00000000E+00  0.00000000E+00
  0.00000000E+00  0.00000000E+00  0.00000000E+00
  0.00000000E+00  0.00000000E+00  0.00000000E+00
  0.00000000E+00  0.00000000E+00  0.00000000E+00
  0.00000000E+00  0.00000000E+00  0.00000000E+00
  0.00000000E+00  0.00000000E+00  0.00000000E+00
  0.00000000E+00  0.00000000E+00  0.00000000E+00
  0.00000000E+00  0.00000000E+00  0.00000000E+00
  0.00000000E+00  0.00000000E+00  0.00000000E+00
  0.00000000E+00  0.00000000E+00  0.00000000E+00
  0.00000000E+00  0.00000000E+00  0.00000000E+00
  0.00000000E+00  0.00000000E+00  0.00000000E+00
  0.00000000E+00  0.00000000E+00  0.00000000E+00
  0.00000000E+00  0.00000000E+00  0.00000000E+00
  0.00000000E+00  0.00000000E+00  0.00000000E+00
  0.00000000E+00  0.00000000E+00  0.00000000E+00
  0.00000000E+00  0.00000000E+00  0.00000000E+00
  0.00000000E+00  0.00000000E+00  0.00000000E+00
  0.00000000E+00  0.00000000E+00  0.00000000E+00
  0.00000000E+00  0.00000000E+00  0.00000000E+00
  0.00000000E+00  0.00000000E+00  0.00000000E+00
  0.00000000E+00  0.00000000E+00  0.00000000E+00
  0.00000000E+00  0.00000000E+00  0.00000000E+00
  0.00000000E+00  0.00000000E+00  0.00000000E+00
  0.00000000E+00  0.00000000E+00  0.00000000E+00
  0.00000000E+00  0.00000000E+00  0.00000000E+00
  0.00000000E+00  0.00000000E+00  0.00000000E+00
  0.00000000E+00  0.00000000E+00  0.00000000E+00
  0.00000000E+00  0.00000000E+00  0.00000000E+00
  0.00000000E+00  0.00000000E+00  0.00000000E+00
  0.00000000E+00  0.00000000E+00  0.00000000E+00
  0.00000000E+00  0.00000000E+00  0.00000000E+00
  0.00000000E+00  0.00000000E+00  0.00000000E+00
  0.00000000E+00  0.00000000E+00  0.00000000E+00
  0.00000000E+00  0.00000000E+00  0.00000000E+00
  0.00000000E+00  0.00000000E+00  0.00000000E+00
  0.00000000E+00  0.00000000E+00  0.00000000E+00
  0.00000000E+00  0.00000000E+00  0.00000000E+00
  0.00000000E+00  0.00000000E+00  0.00000000E+00
  0.00000000E+00  0.00000000E+00  0.00000000E+00
  0.00000000E+00  0.00000000E+00  0.00000000E+00
  0.00000000E+00  0.00000000E+00  0.00000000E+00
  0.00000000E+00  0.00000000E+00  0.00000000E+00
