KPOINTS from doped, with reciprocal_density = 610/Å⁻³
0
Gamma
15 15 15
