-30.0% N(Distort)=2 ~[0.5,0.5,0.5]      
   1.00000000000000     
    12.5998379999999983    0.0000000000000004    0.0000000000000004
     0.0000000000000004   12.5998379999999983   -0.0000000000000004
    -0.0000000000000004   -0.0000000000000004   12.5998379999999983
   Mg   O 
   109   107
Direct
  0.6664639508242147 -0.0005220000620030  0.0005621008633184
  0.8331617067959326  0.1657547800131440  0.0006440162018272
  0.8330073067991988 -0.0005792712795589  0.1669719508604348
  0.3322199529697274 -0.0004912916559145  0.0004497594996712
  0.4993966581531344  0.1647797739664030 -0.0009985595985382
  0.6669139670694724  0.3322145674474334  0.9996357051885286
  0.8334864213579615  0.4992956164035383  0.0005230827444414
  0.4992449240076234  0.9995621539058708  0.1664647967115957
  0.6667288219043399  0.1652705360841579  0.1667508770411652
  0.8330212176918701  0.3322096749198974  0.1669727160634629
  0.6664521703900449  0.0003258888682898  0.3335627960303960
  0.8332480364923440  0.1652586758759022  0.3332636550374303
  0.8335143127705367 -0.0004277757514883  0.5007660944948331
 -0.0006175776481969 -0.0005529809382657  0.0005508397429980
  0.1657703736212762  0.1658179595293420  0.0001466755127111
  0.3319744967230216  0.3320525294178850 -0.0013012686258382
  0.4991757242562850  0.4992553675480825  0.9963536795053879
  0.6664078053726136  0.6664614737201325 -0.0002237071651369
  0.8330094600413757  0.8330677805504973  0.0006164929667171
  0.1656743460741634 -0.0006281404225937  0.1667804474814034
  0.3318679560933623  0.1651711968567365  0.1660189639850404
  0.4995670032771807  0.3261350870174103  0.1592909520645826
  0.6668937809451211  0.4990574335068284  0.1636933346209034
  0.8341598351742384  0.6663855712403350  0.1658376167818166
  0.3321435327542243  0.0004003230235180  0.3330092534852576
  0.4991667357375870  0.1646197229455642  0.3323409938794969
  0.6663401360274539  0.3309925627437396  0.3336686107636339
  0.8363022055437416  0.4990459187913344  0.3330926969903845
  0.4992506480256000  0.0036701424298920  0.5007579276643485
  0.6676295544048054  0.1646674589195897  0.5008201359980049
  0.8406438760343423  0.3261937348276808  0.5004308097720555
  0.6670012527457971  0.0004320734626054  0.6678592839621994
  0.8339452213362840  0.1652068915287412  0.6680695257493718
  0.8331883766900207 -0.0006184182240832  0.8342874942350959
 -0.0005476181960234  0.3322792921369765  0.0005005919925135
  0.1647279571652852  0.4994487288889744 -0.0009432926481424
  0.3321304002407208  0.6669716594785994 -0.0003636626014308
  0.4992256158511675  0.8335565948480532  0.0004584621021925
 -0.0006987486397296  0.1657484841011090  0.1667848236284297
  0.1651028543646192  0.3319549534801365  0.1660419122069861
  0.3260619703163404  0.4996235851408815  0.1592986041044459
  0.4989960052521243  0.6669676367609796  0.1636738610872114
  0.6663286151553794  0.8342465923973593  0.1657907500700677
  0.9994223677691092 -0.0005308185535589  0.3334945319455909
  0.1651928821662889  0.1652414716907212  0.3331976409774196
  0.3285087376923568  0.3285404945992407  0.3331180630525817
  0.4802712231974122  0.4803534984620169  0.3015921755017259
  0.6726522228900900  0.6727245709477937  0.3273462124225460
  0.8341809029476648  0.8342172921234865  0.3336869309895493
  0.1647874446276771  0.0009620700687109  0.5005538986909533
  0.3320823975182980  0.1662002853972776  0.5004732600937996
  0.4994980259371175  0.3289292630633688  0.5004455204276934
  0.6982869134375672  0.4805010485738507  0.5197400377580178
  0.8363448478772672  0.6669400581464658  0.5010008825368483
  0.3320772712968161  0.0012968053294506  0.6679129875605466
  0.4995115511063221  0.1662457598454714  0.6678757193258024
  0.6668657513128794  0.3286190464883412  0.6714604253355035
  0.8407045004259150  0.4996359083077399  0.6739310969169556
  0.4994217018078442  0.0010036167332543  0.8351772030739664
  0.6667710225199260  0.1652747593601049  0.8347726237768682
  0.8339362985564605  0.3319682560540542  0.8348726954719945
 -0.0005762080799536  0.6665503075329955  0.0005775521117634
  0.1656916633785600  0.8332169112120660  0.0006275403564432
 -0.0005007372554373  0.4992961042181431  0.1664966286788103
  0.1651811825924503  0.6667964782392106  0.1667500577783653
  0.3321503929447421  0.8331080301520766  0.1669179821542052
  0.0003409157603138  0.3321966620604455  0.3330397475248754
  0.1645786018254831  0.4992280967336002  0.3323889948385740
  0.3309476028809332  0.6663855886797949  0.3336487901985215
  0.4990258221216998  0.8363989732895323  0.3330540474317520
  0.0009817233271254  0.1648065525848932  0.5005751910123131
  0.1661979182871026  0.3321090138442105  0.5005072004809926
  0.3289156083535652  0.4995632491173826  0.5004695396834742
  0.4805730762187739  0.6983060184265126  0.5196553659670491
  0.6669556396450167  0.8364039144669777  0.5010061621763658
  0.9995312001317802 -0.0004908472649247  0.6677281325566067
  0.1663295504834364  0.1663268819738215  0.6674614933794379
  0.3329566761112334  0.3329526723730584  0.6670401674936088
  0.4995632548416662  0.4995865347408308  0.6711311745518540
  0.6663890428514249  0.6663927273417132  0.6691417449909007
  0.8330844411292604  0.8330650863089307  0.6678426955867315
  0.1658221407061425 -0.0001646405567338  0.8341289407661795
  0.3324927800140246  0.1663101965565253  0.8336529669014057
  0.4994608014714831  0.3321153301172013  0.8337850808820599
  0.6676352529152342  0.4992351586632786  0.8354417589437561
  0.8332561222407570  0.6667658279538459  0.8348481003342217
 -0.0006512244078699  0.8330738917420359  0.1669701314817746
  0.0002634025446499  0.6664732296674425  0.3335782614336378
  0.1652293380403868  0.8332889597391527  0.3332495128551483
  0.0036621076088056  0.4992593423243145  0.5008027388820462
  0.1646677899217867  0.6676433400127227  0.5008133100665472
  0.3261957510226910  0.8406494044973863  0.5003794717228729
  0.0013127025120409  0.3320869997102858  0.6679575019569781
  0.1662486826397198  0.4995211265713180  0.6679182158142180
  0.3286420123304826  0.6668630328763645  0.6714275135319547
  0.4996371718237992  0.8407070624508355  0.6738820291945296
 -0.0001708488767611  0.1658492354535608  0.8341373950780695
  0.1662863711690210  0.3325148399752897  0.8336856740527618
  0.3320815140473642  0.4994969506375900  0.8337921102990340
  0.4991810305251282  0.6676616125390253  0.8354187098977823
  0.6667433484651000  0.8333005649690576  0.8348082895006993
 -0.0004517393425373  0.8335105490686484  0.5007518722187512
  0.0004078388011125  0.6669671089371347  0.6678523976217954
  0.1652478411780622  0.8339288733975591  0.6680417103641985
  0.0009719149101641  0.4994377358556213  0.8352581167232409
  0.1652481570132959  0.6668014908458653  0.8347586851271014
  0.3319526470150660  0.8339611702802876  0.8348254309812525
 -0.0006398603836268  0.8331948721579748  0.8342656753903634
  0.5571758527833406  0.5571048434005993  0.4426622920831778
  0.8324719652128399  0.1661929553474691  0.1674986113382915
 -0.0010361690163259  0.3327740134310719  0.1672049735919498
  0.9991614653344321  0.1659721864463874  0.3337730432671407
  0.4994039885869361  0.1649076885278757  0.1658628511409183
  0.6652117377956601  0.3336919000808014  0.1676475485371118
  0.8314207779685057  0.4995652366941921  0.1685915248626656
 -0.0009394320125262  0.6660438960270727  0.1674865275259607
  0.6661233050087184  0.1664177392938669  0.3338781315597235
  0.8323277579596892  0.3337117187218068  0.3347783557813044
  0.0002583080151022  0.4994638338932265  0.3333988440590786
  0.8341180439027287  0.1649220836547427  0.5005654450488932
  0.0018269508037640  0.3319022698146042  0.5004221561067452
 -0.0001487924641422  0.1661081174983514  0.6671858183209857
  0.1659664317120933  0.1660610232665830  0.1669539143473997
  0.3333318928778899  0.3333848318409858  0.1663473733701107
  0.4986483437099646  0.4987443769357900  0.1563296343307589
  0.6652545349984484  0.6653350037753294  0.1673174831549208
  0.8321102591507915  0.8321695939561526  0.1678936384026736
  0.9991426454052007 -0.0007852655997520  0.1673255213994304
  0.3323572759720802  0.1657033017375998  0.3332422249964685
  0.4982544910510602  0.3297528125002428  0.3308976867257972
  0.6599753391563509  0.5000005735722601  0.3399782882902471
  0.8326646424090740  0.6652990970071242  0.3347766559710833
 -0.0009287176417907  0.8325759781000284  0.3340311890785823
  0.4999597346844613  0.1669232130224245  0.5000043363814023
  0.6690485107306086  0.3298341918034520  0.5017339300227642
  0.8436122689071489  0.4987431201502017  0.5013586643514304
  0.0003080411124354  0.6666432983808454  0.5005748726128603
  0.6667406505208323  0.1657454556121882  0.6676021255619736
  0.8336636192594722  0.3334260989021715  0.6666507927673226
  0.0018622664254066  0.4996169915167330  0.6681815444597187
  0.8330364612571028  0.1660665720887167  0.8339844322099365
 -0.0001858959056166  0.3327996797978247  0.8339316671735361
 -0.0006774395699035  0.1659942524211879  0.0006139114151947
  0.1648323598941582  0.4994701766088357  0.1658918093392585
  0.3336488278268018  0.6652773422501894  0.1676561982251692
  0.4995251606120457  0.8314762318977256  0.1685492108878506
  0.6659924969871353 -0.0008497126452063  0.1674852308665254
  0.1656646995457114  0.3324142956232735  0.3332501432765457
  0.3296861509582699  0.4983234589424053  0.3309108702228245
  0.4999912634089421  0.6599663201339879  0.3399903451560655
  0.6652664555054906  0.8327336796081160  0.3347747752369284
  0.8325080289181960 -0.0008792637715172  0.3340261633807769
  0.1664572571567033  0.1664688117539415  0.5002060166737388
  0.3339621867027305  0.3339552349505696  0.4994116789363509
  0.6598556475804620  0.6599085708348114  0.5000666142362794
  0.8314330135621757  0.8314316577181944  0.5005004656728790
  0.9991745678525472 -0.0008366940540733  0.5005164130766659
  0.3332281235002650  0.1670901032564328  0.6667709696068335
  0.5005574447935576  0.3339918257046655  0.6660181891478872
  0.6690933061678098  0.4983531827189819  0.6703881190725844
  0.8323519050713508  0.6652465921596110  0.6663357362257709
 -0.0009463620013122  0.8327957343985426  0.6672258205611191
  0.4997516461143821  0.1664795948353113  0.8335068271273973
  0.6666893351935274  0.3324399267309582  0.8343175442341219
  0.8340962339718989  0.4994674722903711  0.8351696893878177
 -0.0008129178286677  0.6662541190507598  0.8340386397323747
  0.6661999806678053  0.1660050057696992  0.0008089856148552
  0.8327393121209330  0.3328017908061127  0.0010062528995491
 -0.0008474983387833  0.4995172142438863  0.0008448247519746
  0.1661273731295748  0.8325265214272066  0.1674862165850323
  0.3327105309209965 -0.0009620867957998  0.1671692594289870
  0.1663590210743842  0.6661735635687748  0.3338786712891765
  0.3336808160744173  0.8323639475881704  0.3347444925040625
  0.4994485255630509  0.0003131056534771  0.3333381112287082
  0.1669155200218392  0.4999896824671426  0.5000301982634845
  0.3298850270326183  0.6690558800288149  0.5017141388954125
  0.4987354391504100  0.8436634205985886  0.5012914251540908
  0.6666549042008644  0.0003373527324927  0.5005824069264331
  0.1670961960835076  0.3332296999339425  0.6667915703702472
  0.3339796801689262  0.5005592889330331  0.6660294593748782
  0.4983540000362108  0.6691222896736962  0.6703166377172034
  0.6652823807127928  0.8323755701418443  0.6663369904829235
  0.8328326365555171 -0.0009503208942941  0.6672507927559266
  0.1663015686624545  0.1663052381952272  0.8336468115700765
  0.3332042549119548  0.3332231316590779  0.8329148943999249
  0.4999510242171891  0.4999899331384009  0.8331220331091700
  0.6661274727193849  0.6661831866899335  0.8337021590817172
  0.8324962495199389  0.8325022250493836  0.8338269462670455
 -0.0006220490464689 -0.0006171952389478  0.8340011018408484
  0.3327266989959619  0.1660758433660005  0.0001435148670711
  0.4995197866233587  0.3318865414128760  0.9981526918961826
  0.6665850111959003  0.4994745796665201 -0.0002441500462234
  0.8325170712568299  0.6660272211166059  0.0009496441294212
 -0.0008366102716887  0.8326913220285714  0.0008048933790991
  0.1659408437250979 -0.0007985978355775  0.3337453643350661
  0.1649280891182575  0.8341158314857479  0.5005471227102911
  0.3319037841979309  0.0018586388843415  0.5004016524237264
  0.1657648908988394  0.6667384503821360  0.6675945069245757
  0.3334435787164580  0.8336266247405703  0.6666124418158312
  0.4996258743820123  0.0018665132485499  0.6681239828693184
  0.1664788248139130  0.4997825214467514  0.8335469411690211
  0.3324057035019099  0.6667307517850131  0.8342965501991840
  0.4994517947165738  0.8341497963313796  0.8351227612830442
  0.6662351486760948 -0.0007578681962359  0.8340352215359859
  0.1660079488613879  0.3327922751626832  0.0001747784867559
  0.3318037649431866  0.4995837629242921 -0.0018363461100158
  0.4993950472881041  0.6666819862493276 -0.0002634001598659
  0.6659589901955074  0.8325960676645779  0.0009174556743803
  0.8326293108062265 -0.0007924537213743  0.0008115816829728
  0.1661114059871595 -0.0001748949070027  0.6671751979878935
  0.1660593678381365  0.8330317611242489  0.8339191944711341
  0.3327806647292666 -0.0001672788280907  0.8338843460257311
  0.1659396099513511  0.6662570069794417  0.0008231691868222
  0.3327371258990555  0.8328284532467402  0.0009553675758570
  0.4994637877800109  0.9992140280659492  0.0008068790082552
  0.1659225795804230 -0.0006276039422983  0.0006014849951218
 
  0.00000000E+00  0.00000000E+00  0.00000000E+00
  0.00000000E+00  0.00000000E+00  0.00000000E+00
  0.00000000E+00  0.00000000E+00  0.00000000E+00
  0.00000000E+00  0.00000000E+00  0.00000000E+00
  0.00000000E+00  0.00000000E+00  0.00000000E+00
  0.00000000E+00  0.00000000E+00  0.00000000E+00
  0.00000000E+00  0.00000000E+00  0.00000000E+00
  0.00000000E+00  0.00000000E+00  0.00000000E+00
  0.00000000E+00  0.00000000E+00  0.00000000E+00
  0.00000000E+00  0.00000000E+00  0.00000000E+00
  0.00000000E+00  0.00000000E+00  0.00000000E+00
  0.00000000E+00  0.00000000E+00  0.00000000E+00
  0.00000000E+00  0.00000000E+00  0.00000000E+00
  0.00000000E+00  0.00000000E+00  0.00000000E+00
  0.00000000E+00  0.00000000E+00  0.00000000E+00
  0.00000000E+00  0.00000000E+00  0.00000000E+00
  0.00000000E+00  0.00000000E+00  0.00000000E+00
  0.00000000E+00  0.00000000E+00  0.00000000E+00
  0.00000000E+00  0.00000000E+00  0.00000000E+00
  0.00000000E+00  0.00000000E+00  0.00000000E+00
  0.00000000E+00  0.00000000E+00  0.00000000E+00
  0.00000000E+00  0.00000000E+00  0.00000000E+00
  0.00000000E+00  0.00000000E+00  0.00000000E+00
  0.00000000E+00  0.00000000E+00  0.00000000E+00
  0.00000000E+00  0.00000000E+00  0.00000000E+00
  0.00000000E+00  0.00000000E+00  0.00000000E+00
  0.00000000E+00  0.00000000E+00  0.00000000E+00
  0.00000000E+00  0.00000000E+00  0.00000000E+00
  0.00000000E+00  0.00000000E+00  0.00000000E+00
  0.00000000E+00  0.00000000E+00  0.00000000E+00
  0.00000000E+00  0.00000000E+00  0.00000000E+00
  0.00000000E+00  0.00000000E+00  0.00000000E+00
  0.00000000E+00  0.00000000E+00  0.00000000E+00
  0.00000000E+00  0.00000000E+00  0.00000000E+00
  0.00000000E+00  0.00000000E+00  0.00000000E+00
  0.00000000E+00  0.00000000E+00  0.00000000E+00
  0.00000000E+00  0.00000000E+00  0.00000000E+00
  0.00000000E+00  0.00000000E+00  0.00000000E+00
  0.00000000E+00  0.00000000E+00  0.00000000E+00
  0.00000000E+00  0.00000000E+00  0.00000000E+00
  0.00000000E+00  0.00000000E+00  0.00000000E+00
  0.00000000E+00  0.00000000E+00  0.00000000E+00
  0.00000000E+00  0.00000000E+00  0.00000000E+00
  0.00000000E+00  0.00000000E+00  0.00000000E+00
  0.00000000E+00  0.00000000E+00  0.00000000E+00
  0.00000000E+00  0.00000000E+00  0.00000000E+00
  0.00000000E+00  0.00000000E+00  0.00000000E+00
  0.00000000E+00  0.00000000E+00  0.00000000E+00
  0.00000000E+00  0.00000000E+00  0.00000000E+00
  0.00000000E+00  0.00000000E+00  0.00000000E+00
  0.00000000E+00  0.00000000E+00  0.00000000E+00
  0.00000000E+00  0.00000000E+00  0.00000000E+00
  0.00000000E+00  0.00000000E+00  0.00000000E+00
  0.00000000E+00  0.00000000E+00  0.00000000E+00
  0.00000000E+00  0.00000000E+00  0.00000000E+00
  0.00000000E+00  0.00000000E+00  0.00000000E+00
  0.00000000E+00  0.00000000E+00  0.00000000E+00
  0.00000000E+00  0.00000000E+00  0.00000000E+00
  0.00000000E+00  0.00000000E+00  0.00000000E+00
  0.00000000E+00  0.00000000E+00  0.00000000E+00
  0.00000000E+00  0.00000000E+00  0.00000000E+00
  0.00000000E+00  0.00000000E+00  0.00000000E+00
  0.00000000E+00  0.00000000E+00  0.00000000E+00
  0.00000000E+00  0.00000000E+00  0.00000000E+00
  0.00000000E+00  0.00000000E+00  0.00000000E+00
  0.00000000E+00  0.00000000E+00  0.00000000E+00
  0.00000000E+00  0.00000000E+00  0.00000000E+00
  0.00000000E+00  0.00000000E+00  0.00000000E+00
  0.00000000E+00  0.00000000E+00  0.00000000E+00
  0.00000000E+00  0.00000000E+00  0.00000000E+00
  0.00000000E+00  0.00000000E+00  0.00000000E+00
  0.00000000E+00  0.00000000E+00  0.00000000E+00
  0.00000000E+00  0.00000000E+00  0.00000000E+00
  0.00000000E+00  0.00000000E+00  0.00000000E+00
  0.00000000E+00  0.00000000E+00  0.00000000E+00
  0.00000000E+00  0.00000000E+00  0.00000000E+00
  0.00000000E+00  0.00000000E+00  0.00000000E+00
  0.00000000E+00  0.00000000E+00  0.00000000E+00
  0.00000000E+00  0.00000000E+00  0.00000000E+00
  0.00000000E+00  0.00000000E+00  0.00000000E+00
  0.00000000E+00  0.00000000E+00  0.00000000E+00
  0.00000000E+00  0.00000000E+00  0.00000000E+00
  0.00000000E+00  0.00000000E+00  0.00000000E+00
  0.00000000E+00  0.00000000E+00  0.00000000E+00
  0.00000000E+00  0.00000000E+00  0.00000000E+00
  0.00000000E+00  0.00000000E+00  0.00000000E+00
  0.00000000E+00  0.00000000E+00  0.00000000E+00
  0.00000000E+00  0.00000000E+00  0.00000000E+00
  0.00000000E+00  0.00000000E+00  0.00000000E+00
  0.00000000E+00  0.00000000E+00  0.00000000E+00
  0.00000000E+00  0.00000000E+00  0.00000000E+00
  0.00000000E+00  0.00000000E+00  0.00000000E+00
  0.00000000E+00  0.00000000E+00  0.00000000E+00
  0.00000000E+00  0.00000000E+00  0.00000000E+00
  0.00000000E+00  0.00000000E+00  0.00000000E+00
  0.00000000E+00  0.00000000E+00  0.00000000E+00
  0.00000000E+00  0.00000000E+00  0.00000000E+00
  0.00000000E+00  0.00000000E+00  0.00000000E+00
  0.00000000E+00  0.00000000E+00  0.00000000E+00
  0.00000000E+00  0.00000000E+00  0.00000000E+00
  0.00000000E+00  0.00000000E+00  0.00000000E+00
  0.00000000E+00  0.00000000E+00  0.00000000E+00
  0.00000000E+00  0.00000000E+00  0.00000000E+00
  0.00000000E+00  0.00000000E+00  0.00000000E+00
  0.00000000E+00  0.00000000E+00  0.00000000E+00
  0.00000000E+00  0.00000000E+00  0.00000000E+00
  0.00000000E+00  0.00000000E+00  0.00000000E+00
  0.00000000E+00  0.00000000E+00  0.00000000E+00
  0.00000000E+00  0.00000000E+00  0.00000000E+00
  0.00000000E+00  0.00000000E+00  0.00000000E+00
  0.00000000E+00  0.00000000E+00  0.00000000E+00
  0.00000000E+00  0.00000000E+00  0.00000000E+00
  0.00000000E+00  0.00000000E+00  0.00000000E+00
  0.00000000E+00  0.00000000E+00  0.00000000E+00
  0.00000000E+00  0.00000000E+00  0.00000000E+00
  0.00000000E+00  0.00000000E+00  0.00000000E+00
  0.00000000E+00  0.00000000E+00  0.00000000E+00
  0.00000000E+00  0.00000000E+00  0.00000000E+00
  0.00000000E+00  0.00000000E+00  0.00000000E+00
  0.00000000E+00  0.00000000E+00  0.00000000E+00
  0.00000000E+00  0.00000000E+00  0.00000000E+00
  0.00000000E+00  0.00000000E+00  0.00000000E+00
  0.00000000E+00  0.00000000E+00  0.00000000E+00
  0.00000000E+00  0.00000000E+00  0.00000000E+00
  0.00000000E+00  0.00000000E+00  0.00000000E+00
  0.00000000E+00  0.00000000E+00  0.00000000E+00
  0.00000000E+00  0.00000000E+00  0.00000000E+00
  0.00000000E+00  0.00000000E+00  0.00000000E+00
  0.00000000E+00  0.00000000E+00  0.00000000E+00
  0.00000000E+00  0.00000000E+00  0.00000000E+00
  0.00000000E+00  0.00000000E+00  0.00000000E+00
  0.00000000E+00  0.00000000E+00  0.00000000E+00
  0.00000000E+00  0.00000000E+00  0.00000000E+00
  0.00000000E+00  0.00000000E+00  0.00000000E+00
  0.00000000E+00  0.00000000E+00  0.00000000E+00
  0.00000000E+00  0.00000000E+00  0.00000000E+00
  0.00000000E+00  0.00000000E+00  0.00000000E+00
  0.00000000E+00  0.00000000E+00  0.00000000E+00
  0.00000000E+00  0.00000000E+00  0.00000000E+00
  0.00000000E+00  0.00000000E+00  0.00000000E+00
  0.00000000E+00  0.00000000E+00  0.00000000E+00
  0.00000000E+00  0.00000000E+00  0.00000000E+00
  0.00000000E+00  0.00000000E+00  0.00000000E+00
  0.00000000E+00  0.00000000E+00  0.00000000E+00
  0.00000000E+00  0.00000000E+00  0.00000000E+00
  0.00000000E+00  0.00000000E+00  0.00000000E+00
  0.00000000E+00  0.00000000E+00  0.00000000E+00
  0.00000000E+00  0.00000000E+00  0.00000000E+00
  0.00000000E+00  0.00000000E+00  0.00000000E+00
  0.00000000E+00  0.00000000E+00  0.00000000E+00
  0.00000000E+00  0.00000000E+00  0.00000000E+00
  0.00000000E+00  0.00000000E+00  0.00000000E+00
  0.00000000E+00  0.00000000E+00  0.00000000E+00
  0.00000000E+00  0.00000000E+00  0.00000000E+00
  0.00000000E+00  0.00000000E+00  0.00000000E+00
  0.00000000E+00  0.00000000E+00  0.00000000E+00
  0.00000000E+00  0.00000000E+00  0.00000000E+00
  0.00000000E+00  0.00000000E+00  0.00000000E+00
  0.00000000E+00  0.00000000E+00  0.00000000E+00
  0.00000000E+00  0.00000000E+00  0.00000000E+00
  0.00000000E+00  0.00000000E+00  0.00000000E+00
  0.00000000E+00  0.00000000E+00  0.00000000E+00
  0.00000000E+00  0.00000000E+00  0.00000000E+00
  0.00000000E+00  0.00000000E+00  0.00000000E+00
  0.00000000E+00  0.00000000E+00  0.00000000E+00
  0.00000000E+00  0.00000000E+00  0.00000000E+00
  0.00000000E+00  0.00000000E+00  0.00000000E+00
  0.00000000E+00  0.00000000E+00  0.00000000E+00
  0.00000000E+00  0.00000000E+00  0.00000000E+00
  0.00000000E+00  0.00000000E+00  0.00000000E+00
  0.00000000E+00  0.00000000E+00  0.00000000E+00
  0.00000000E+00  0.00000000E+00  0.00000000E+00
  0.00000000E+00  0.00000000E+00  0.00000000E+00
  0.00000000E+00  0.00000000E+00  0.00000000E+00
  0.00000000E+00  0.00000000E+00  0.00000000E+00
  0.00000000E+00  0.00000000E+00  0.00000000E+00
  0.00000000E+00  0.00000000E+00  0.00000000E+00
  0.00000000E+00  0.00000000E+00  0.00000000E+00
  0.00000000E+00  0.00000000E+00  0.00000000E+00
  0.00000000E+00  0.00000000E+00  0.00000000E+00
  0.00000000E+00  0.00000000E+00  0.00000000E+00
  0.00000000E+00  0.00000000E+00  0.00000000E+00
  0.00000000E+00  0.00000000E+00  0.00000000E+00
  0.00000000E+00  0.00000000E+00  0.00000000E+00
  0.00000000E+00  0.00000000E+00  0.00000000E+00
  0.00000000E+00  0.00000000E+00  0.00000000E+00
  0.00000000E+00  0.00000000E+00  0.00000000E+00
  0.00000000E+00  0.00000000E+00  0.00000000E+00
  0.00000000E+00  0.00000000E+00  0.00000000E+00
  0.00000000E+00  0.00000000E+00  0.00000000E+00
  0.00000000E+00  0.00000000E+00  0.00000000E+00
  0.00000000E+00  0.00000000E+00  0.00000000E+00
  0.00000000E+00  0.00000000E+00  0.00000000E+00
  0.00000000E+00  0.00000000E+00  0.00000000E+00
  0.00000000E+00  0.00000000E+00  0.00000000E+00
  0.00000000E+00  0.00000000E+00  0.00000000E+00
  0.00000000E+00  0.00000000E+00  0.00000000E+00
  0.00000000E+00  0.00000000E+00  0.00000000E+00
  0.00000000E+00  0.00000000E+00  0.00000000E+00
  0.00000000E+00  0.00000000E+00  0.00000000E+00
  0.00000000E+00  0.00000000E+00  0.00000000E+00
  0.00000000E+00  0.00000000E+00  0.00000000E+00
  0.00000000E+00  0.00000000E+00  0.00000000E+00
  0.00000000E+00  0.00000000E+00  0.00000000E+00
  0.00000000E+00  0.00000000E+00  0.00000000E+00
  0.00000000E+00  0.00000000E+00  0.00000000E+00
  0.00000000E+00  0.00000000E+00  0.00000000E+00
  0.00000000E+00  0.00000000E+00  0.00000000E+00
  0.00000000E+00  0.00000000E+00  0.00000000E+00
  0.00000000E+00  0.00000000E+00  0.00000000E+00
  0.00000000E+00  0.00000000E+00  0.00000000E+00
  0.00000000E+00  0.00000000E+00  0.00000000E+00
  0.00000000E+00  0.00000000E+00  0.00000000E+00
  0.00000000E+00  0.00000000E+00  0.00000000E+00
  0.00000000E+00  0.00000000E+00  0.00000000E+00
  0.00000000E+00  0.00000000E+00  0.00000000E+00
