10.0% N(Distort)=2 ~[0.5,0.5,0.5]       
   1.00000000000000     
    12.5998379999999983    0.0000000000000004    0.0000000000000004
     0.0000000000000004   12.5998379999999983   -0.0000000000000004
    -0.0000000000000004   -0.0000000000000004   12.5998379999999983
   Mg   O 
   109   107
Direct
  0.6665547606229552  0.0009503643303301  0.0000855791124234
  0.8330593679607039  0.1673294525118278  0.0001066153499625
  0.8330796307565475  0.0009988212259689  0.1664596437394858
  0.3323290337757236  0.0008961140282331  0.0000373665673547
  0.4992976625337303  0.1669132310436896  0.0000124556972848
  0.6664568298787699  0.3339699624055875  0.9992293435437191
  0.8335278985655463  0.5011282878764347 -0.0000392016006582
  0.4992954474714106  0.0008729414567106  0.1660676264023108
  0.6663594765620221  0.1661765170541936  0.1653030104827453
  0.8342600642487132  0.3340693650316743  0.1652595975797208
  0.6664654594574181  0.0001086277845455  0.3331033392573242
  0.8342301276295372  0.1661548838986403  0.3331713854667060
  0.8335213739098171  0.0008617273866329  0.5002528339766115
 -0.0005043069377715  0.0009488040359499  0.0000565419412142
  0.1657951562026211  0.1671843379905840  0.0001607802648009
  0.3321921879372082  0.3334424633452101  0.9991377301642507
  0.4992607095284309  0.5012054051653814  0.9958680898820143
  0.6669911960624219  0.6682764518927944 -0.0008895811898698
  0.8332333351943823  0.8346475863815914  0.0001542357278209
  0.1657878673839970  0.0010146189387521  0.1663325433211618
  0.3322393888925004  0.1673324617373334  0.1664893863161674
  0.4990504549319045  0.3335063853478212  0.1632201714028295
  0.6669476349080468  0.5013896618006219  0.1632009640896649
  0.8330783266752058  0.6682312385467006  0.1664487283191151
  0.3321955003718628  0.0000180297213655  0.3326020481769362
  0.4990395271555377  0.1640723218232922  0.3326426552376442
  0.6727736465651312  0.3276215706751039  0.3267757844136109
  0.8363315276915501  0.5013809154386222  0.3325918530836698
  0.4992550491994147  0.9967578256510524  0.5003412035871487
  0.6669305868385040  0.1640538753008230  0.5005137410884821
  0.8363122752345986  0.3334590723609359  0.5004861076451674
  0.6669987406561293  0.0000032158275820  0.6673676249977704
  0.8330669763479800  0.1673137907134730  0.6673184595167332
  0.8332268650717658  0.0010138880763035  0.8337818712279453
 -0.0005406330981567  0.3338606399973055  0.0000519799353914
  0.1648094995911383  0.5009628939084377 -0.0014666882628454
  0.3320917604421452  0.6683546023928179 -0.0017797051574747
  0.4994682444011488  0.8356542886600937 -0.0014115609444663
 -0.0005702901021027  0.1673273722814774  0.1664445637673926
  0.1652433642996943  0.3336335846729286  0.1662452235389304
  0.3261787410297051  0.5008055949667842  0.1588589269887279
  0.4996350521011153  0.6742903969165659  0.1588564221913590
  0.6667839079757352  0.8352139003640492  0.1662672635297045
 -0.0005365157286798  0.0009355162183377  0.3329847824444329
  0.1652167009005556  0.1671257153613223  0.3327520617473901
  0.3309542539022735  0.3340405383565581  0.3331830593736479
  0.4803443418160859  0.5201785028247820  0.3013068813032391
  0.6663612198917244  0.6694751274433544  0.3331717127068494
  0.8332822161667605  0.8351981480341995  0.3327653859771761
  0.1647657210938345 -0.0005522433114944  0.5001056056386936
  0.3261252751247903  0.1597648088116591  0.4999600965743481
  0.4803456858710400  0.3021479237040449  0.5192688239471974
  0.6982178737141845  0.5200975330865409  0.5191367559911784
  0.8406837177250488  0.6742625091636623  0.4999271648699329
  0.3320856291003617 -0.0008894693879993  0.6674930199747613
  0.4996104412330063  0.1597330623884187  0.6733839917122799
  0.6663571509442955  0.3340292140981012  0.6685939372970188
  0.8406608666299525  0.5007858586142345  0.6733524771824339
  0.4994668917606118 -0.0005492223541096  0.8347648677330504
  0.6667638491775042  0.1671131896732395  0.8343000435247244
  0.8332790413057025  0.3336344133689931  0.8342688633912255
 -0.0004679211605368  0.6681291403297702  0.0000003500434129
  0.1658782870918547  0.8345665052341072 -0.0003151562983077
 -0.0004250400268244  0.5011280351520035  0.1659998675409142
  0.1652171681243628  0.6684350880842977  0.1655549040257036
  0.3319851247916178  0.8352243314750742  0.1655887409425233
  0.0002979347633897  0.3339549852919556  0.3330650226248982
  0.1646492047827167  0.5012229414115917  0.3319014431750533
  0.3285419135189887  0.6718862001866746  0.3327159580000950
  0.4992150276217536  0.8358043758383090  0.3319331628081763
 -0.0004649603042867  0.1668886332962526  0.5002509951756434
  0.1646244704489041  0.3328111038580485  0.5003097044863744
  0.3288982178329404  0.5009020048300243  0.5000072248254533
  0.4995505630530454  0.6715448174166514  0.5000034697706088
  0.6676256472891240  0.8357914354523537  0.5003171125536401
 -0.0004706441236618  0.0008680019139568  0.6672464362369969
  0.1651930514057141  0.1664682628260643  0.6675657722266842
  0.3285658887430427  0.3336036774171998  0.6709815663778478
  0.4995527160214511  0.5008887011177789  0.6706273121302354
  0.6668419271295678  0.6718737297373558  0.6709532868853954
  0.8339656273381861  0.8352206232275254  0.6675540259665327
  0.1658813411621866  0.0005565110855775  0.8336862344498881
  0.3319913336247530  0.1664787670381451  0.8343466355615522
  0.4992243030521828  0.3328146089748455  0.8349106793033101
  0.6676478304992145  0.5012400913539777  0.8348837178110172
  0.8339785754924216  0.6684531908883861  0.8343234704249103
 -0.0006092834732219  0.8346563819956740  0.1663069593025960
  0.0004048433618596  0.6682656660472366  0.3325410811954593
  0.1652602033425997  0.8351773767608465  0.3327300180187504
  0.0036237703292189  0.5011841864305459  0.5002762914530577
  0.1662122738820356  0.6683600356398219  0.5000605301432854
  0.3320900336894334  0.8342224065825732  0.5000779076415445
  0.0003801530911593  0.3334356096844436  0.6673453816239998
  0.1662060847014381  0.5009166995526678  0.6674214366142540
  0.3329569600609815  0.6674725025699653  0.6665959436896087
  0.4995081431448963  0.8342004217005773  0.6674592494509631
 -0.0006185013928567  0.1671825977560301  0.8337529505646435
  0.1652457477045908  0.3336030071308196  0.8342749095507275
  0.3320944987091535  0.5009454472774226  0.8333268379141403
  0.4995078675092925  0.6683877044010264  0.8333282245674731
  0.6668217953560616  0.8351757514793579  0.8342802359642841
  0.0009692001337494  0.8356209607772034  0.5000810136435594
  0.0013142164030573  0.6683489277309131  0.6674555371137634
  0.1663292831707073  0.8341030952082144  0.6670519632832888
  0.0009798110841140  0.5009674227752279  0.8347215003883536
  0.1663264911791188  0.6679008755033670  0.8332275607389975
  0.3325357185006044  0.8341025967291238  0.8332385925564043
 -0.0001239647760957  0.8345579393800041  0.8336793282120101
  0.5573348072406525  0.4429950745209177  0.4421606071145550
  0.8321630046119334  0.1682568891380412  0.1673323120076695
 -0.0008839828829679  0.3344032577727358  0.1669385726091238
 -0.0009000723598147  0.1678565843869029  0.3334666305159485
  0.4995729915707304  0.1689891419888291  0.1681030124632160
  0.6653032378426696  0.3351366692654889  0.1667814700730558
  0.8314576675415061  0.5008635697160264  0.1680706502072140
 -0.0009543900661682  0.6676377782059163  0.1666951912056850
  0.6653052294815492  0.1676921861070678  0.3342466291442796
  0.8327291745890320  0.3351331715504542  0.3342202738607727
  0.0002996864111700  0.5010017573429086  0.3328620340550201
  0.8314608929724479  0.1689302020666243  0.4999492881996247
  0.0002825002715994  0.3337956701716378  0.5000545955316882
 -0.0009708719491351  0.1676235249350022  0.6667221405413601
  0.1662116178061978  0.1678789307447009  0.1670001806783327
  0.3337054916931125  0.3351786590575823  0.1671654656684668
  0.4987150670006025  0.5017368992209499  0.1559321469636534
  0.6652597365601541  0.6667267923466532  0.1671801360091800
  0.8325270068225689  0.8342261721001181  0.1669962570466625
 -0.0007806051713236  0.0011885829026725  0.1668018074438279
  0.3336813049729752  0.1680593237251117  0.3343101444575041
  0.4999787221800880  0.3403256117890244  0.3395347877012009
  0.6599998944499781  0.5003948263578012  0.3395296184931397
  0.8323376941874621  0.6667155908131263  0.3342821690521187
 -0.0007880294754761  0.8344239982365409  0.3332545393605023
  0.4986889555279088  0.1568009853212138  0.5008565978615169
  0.6599931360341292  0.3403219100845217  0.4995469863360589
  0.8435911836304711  0.5017179086923851  0.5008102552896776
  0.0018485923591623  0.6685383536671921  0.4999239742619294
  0.6652516909736803  0.1680410728710524  0.6658297364690356
  0.8323508022952952  0.3351554785269892  0.6658024756805715
  0.0018374977886316  0.5008234855790387  0.6676299308577506
  0.8325103821106519  0.1678798108569288  0.8333168616735847
 -0.0008000871501405  0.3341757156026314  0.8335086565325639
 -0.0007809690348948  0.1677265664945279  0.0002721089591540
  0.1649286688915213  0.5009684652660215  0.1653900752707866
  0.3334322059708329  0.6670189296170879  0.1658818668605461
  0.4994777207458224  0.8355410099621747  0.1654292933064674
  0.6660254518065155  0.0013148641491720  0.1669721812930490
  0.1663882629063371  0.3342907828226666  0.3333593399816011
  0.3297548520153181  0.5021395441779423  0.3304812911723864
  0.4983250145778850  0.6707370386442574  0.3304920968035855
  0.6661658669177140  0.8340686965203086  0.3333595815497455
  0.8325649460574567  0.0012909452636644  0.3334805145701469
  0.1648690654714339  0.1663115554823802  0.5000543450265973
  0.3297234764418386  0.3313751191868861  0.5012484237018529
  0.6690507110781158  0.6707056502919134  0.5012134188047300
  0.8341129603668560  0.8355087225893709  0.5000367130731217
 -0.0008527086549532  0.0012298759407117  0.4999986863419602
  0.3334125658343413  0.1667819411723465  0.6661348268441489
  0.4983054694443989  0.3313504250579117  0.6698485279623245
  0.6690901165450206  0.5021305309545812  0.6697655192098404
  0.8336674529979305  0.6670238895155418  0.6660924293234882
 -0.0001404631811003  0.8343047258169836  0.6666989510013012
  0.4994764241987638  0.1663245675089789  0.8346472467586760
  0.6661551703529739  0.3342898728187269  0.8331419835814120
  0.8341186693892921  0.5009620064650283  0.8346033687389715
 -0.0001290758488407  0.6676086972199641  0.8334050393436210
  0.6660152694708832  0.1678608266374139  0.0004078997886631
  0.8325505421303724  0.3344029030326565  0.0003756199907716
  0.9991778132931864  0.5009114849589735  0.0003242453663977
  0.1660750394014201  0.8343505582682195  0.1664696642789010
  0.3327995248006465  0.0013774578863131  0.1667407347857183
  0.1657256869100649  0.6680173653586082  0.3328032145425052
  0.3324191049197029  0.8347004881913744  0.3328285052350001
  0.4994686695491300  0.0001356951977556  0.3329443312988198
  0.1669238210631085  0.5004774359063141  0.4995500475670206
  0.3339717163112109  0.6664715374572484  0.4989867450781747
  0.4999702201329165  0.8335009690681320  0.4995910591428860
  0.6666494525328279  0.0001115049561508  0.5000756779512479
  0.1657258167557700  0.3337213420445656  0.6670993269526020
  0.3339880356939798  0.4998907044594527  0.6655504236846359
  0.5005700940262612  0.6664665490024222  0.6655530186980506
  0.6667314026512569  0.8346884160565730  0.6670936871184230
  0.8328121389973793  0.0013573422669090  0.6667229857995882
  0.1660777455345827  0.1673904797140171  0.8334504771729293
  0.3324287676680369  0.3337385370659333  0.8338001249668301
  0.4999844479009851  0.5005083277736375  0.8325796100547421
  0.6667425716640180  0.6680260976491152  0.8337766912708583
  0.8330662606397532  0.8343507029255752  0.8334547016994750
 -0.0006051113659002  0.0010199445030554  0.8334840419631406
  0.3328195182203115  0.1676268323635974  0.0004951286280159
  0.4994506177798912  0.3338295190065892  0.9992451022230704
  0.6666509270616670  0.5010195143464844  0.9992110183922317
  0.8328192242744760  0.6676280279007923  0.0004666200387938
 -0.0005981900076961  0.8344043248751251  0.0001141897487642
  0.1659737368201684  0.0011971628628224  0.3332724937297131
  0.1664498037928473  0.8339504945927033  0.4997736892537880
  0.3318820733582863 -0.0014119537093130  0.4999654146715427
  0.1671204900487394  0.6672093912746533  0.6663107717394385
  0.3332339539282729  0.8333258134134465  0.6663459242102473
  0.4996244185869814 -0.0014252661418414  0.6676672797883546
  0.1664692395988389  0.5006581689833473  0.8330449517335138
  0.3332089641092442  0.6672408785934422  0.8324184046835132
  0.4997965806287488  0.8339670065361846  0.8330872146736896
  0.6662721453727714  0.0012030712153589  0.8335389318059567
  0.1659858867532325  0.3341748980626685  0.0002922339017576
  0.3319062705186394  0.5008438287888971 -0.0023204094867762
  0.4995999655435885  0.6685649592816590 -0.0023076822851663
  0.6662741761274821  0.8344395821271211  0.0003192548762737
  0.8327054393814652  0.0011934061989461  0.0003015322215897
  0.1661038869491392  0.0005853267434478  0.6667161404597176
  0.1663287499974704  0.8341219479828551  0.8332144942381376
  0.3328319615013904  0.0005768781260721  0.8334430146340306
  0.1661147146622731  0.6676066587543472 -0.0003263811960542
  0.3328341066650721  0.8343239842485140 -0.0003132892041170
  0.4995317843481760  0.0012471930652674  0.0003810357554613
  0.1660441091843505  0.0010283334435431  0.0001334248367999
 
  0.00000000E+00  0.00000000E+00  0.00000000E+00
  0.00000000E+00  0.00000000E+00  0.00000000E+00
  0.00000000E+00  0.00000000E+00  0.00000000E+00
  0.00000000E+00  0.00000000E+00  0.00000000E+00
  0.00000000E+00  0.00000000E+00  0.00000000E+00
  0.00000000E+00  0.00000000E+00  0.00000000E+00
  0.00000000E+00  0.00000000E+00  0.00000000E+00
  0.00000000E+00  0.00000000E+00  0.00000000E+00
  0.00000000E+00  0.00000000E+00  0.00000000E+00
  0.00000000E+00  0.00000000E+00  0.00000000E+00
  0.00000000E+00  0.00000000E+00  0.00000000E+00
  0.00000000E+00  0.00000000E+00  0.00000000E+00
  0.00000000E+00  0.00000000E+00  0.00000000E+00
  0.00000000E+00  0.00000000E+00  0.00000000E+00
  0.00000000E+00  0.00000000E+00  0.00000000E+00
  0.00000000E+00  0.00000000E+00  0.00000000E+00
  0.00000000E+00  0.00000000E+00  0.00000000E+00
  0.00000000E+00  0.00000000E+00  0.00000000E+00
  0.00000000E+00  0.00000000E+00  0.00000000E+00
  0.00000000E+00  0.00000000E+00  0.00000000E+00
  0.00000000E+00  0.00000000E+00  0.00000000E+00
  0.00000000E+00  0.00000000E+00  0.00000000E+00
  0.00000000E+00  0.00000000E+00  0.00000000E+00
  0.00000000E+00  0.00000000E+00  0.00000000E+00
  0.00000000E+00  0.00000000E+00  0.00000000E+00
  0.00000000E+00  0.00000000E+00  0.00000000E+00
  0.00000000E+00  0.00000000E+00  0.00000000E+00
  0.00000000E+00  0.00000000E+00  0.00000000E+00
  0.00000000E+00  0.00000000E+00  0.00000000E+00
  0.00000000E+00  0.00000000E+00  0.00000000E+00
  0.00000000E+00  0.00000000E+00  0.00000000E+00
  0.00000000E+00  0.00000000E+00  0.00000000E+00
  0.00000000E+00  0.00000000E+00  0.00000000E+00
  0.00000000E+00  0.00000000E+00  0.00000000E+00
  0.00000000E+00  0.00000000E+00  0.00000000E+00
  0.00000000E+00  0.00000000E+00  0.00000000E+00
  0.00000000E+00  0.00000000E+00  0.00000000E+00
  0.00000000E+00  0.00000000E+00  0.00000000E+00
  0.00000000E+00  0.00000000E+00  0.00000000E+00
  0.00000000E+00  0.00000000E+00  0.00000000E+00
  0.00000000E+00  0.00000000E+00  0.00000000E+00
  0.00000000E+00  0.00000000E+00  0.00000000E+00
  0.00000000E+00  0.00000000E+00  0.00000000E+00
  0.00000000E+00  0.00000000E+00  0.00000000E+00
  0.00000000E+00  0.00000000E+00  0.00000000E+00
  0.00000000E+00  0.00000000E+00  0.00000000E+00
  0.00000000E+00  0.00000000E+00  0.00000000E+00
  0.00000000E+00  0.00000000E+00  0.00000000E+00
  0.00000000E+00  0.00000000E+00  0.00000000E+00
  0.00000000E+00  0.00000000E+00  0.00000000E+00
  0.00000000E+00  0.00000000E+00  0.00000000E+00
  0.00000000E+00  0.00000000E+00  0.00000000E+00
  0.00000000E+00  0.00000000E+00  0.00000000E+00
  0.00000000E+00  0.00000000E+00  0.00000000E+00
  0.00000000E+00  0.00000000E+00  0.00000000E+00
  0.00000000E+00  0.00000000E+00  0.00000000E+00
  0.00000000E+00  0.00000000E+00  0.00000000E+00
  0.00000000E+00  0.00000000E+00  0.00000000E+00
  0.00000000E+00  0.00000000E+00  0.00000000E+00
  0.00000000E+00  0.00000000E+00  0.00000000E+00
  0.00000000E+00  0.00000000E+00  0.00000000E+00
  0.00000000E+00  0.00000000E+00  0.00000000E+00
  0.00000000E+00  0.00000000E+00  0.00000000E+00
  0.00000000E+00  0.00000000E+00  0.00000000E+00
  0.00000000E+00  0.00000000E+00  0.00000000E+00
  0.00000000E+00  0.00000000E+00  0.00000000E+00
  0.00000000E+00  0.00000000E+00  0.00000000E+00
  0.00000000E+00  0.00000000E+00  0.00000000E+00
  0.00000000E+00  0.00000000E+00  0.00000000E+00
  0.00000000E+00  0.00000000E+00  0.00000000E+00
  0.00000000E+00  0.00000000E+00  0.00000000E+00
  0.00000000E+00  0.00000000E+00  0.00000000E+00
  0.00000000E+00  0.00000000E+00  0.00000000E+00
  0.00000000E+00  0.00000000E+00  0.00000000E+00
  0.00000000E+00  0.00000000E+00  0.00000000E+00
  0.00000000E+00  0.00000000E+00  0.00000000E+00
  0.00000000E+00  0.00000000E+00  0.00000000E+00
  0.00000000E+00  0.00000000E+00  0.00000000E+00
  0.00000000E+00  0.00000000E+00  0.00000000E+00
  0.00000000E+00  0.00000000E+00  0.00000000E+00
  0.00000000E+00  0.00000000E+00  0.00000000E+00
  0.00000000E+00  0.00000000E+00  0.00000000E+00
  0.00000000E+00  0.00000000E+00  0.00000000E+00
  0.00000000E+00  0.00000000E+00  0.00000000E+00
  0.00000000E+00  0.00000000E+00  0.00000000E+00
  0.00000000E+00  0.00000000E+00  0.00000000E+00
  0.00000000E+00  0.00000000E+00  0.00000000E+00
  0.00000000E+00  0.00000000E+00  0.00000000E+00
  0.00000000E+00  0.00000000E+00  0.00000000E+00
  0.00000000E+00  0.00000000E+00  0.00000000E+00
  0.00000000E+00  0.00000000E+00  0.00000000E+00
  0.00000000E+00  0.00000000E+00  0.00000000E+00
  0.00000000E+00  0.00000000E+00  0.00000000E+00
  0.00000000E+00  0.00000000E+00  0.00000000E+00
  0.00000000E+00  0.00000000E+00  0.00000000E+00
  0.00000000E+00  0.00000000E+00  0.00000000E+00
  0.00000000E+00  0.00000000E+00  0.00000000E+00
  0.00000000E+00  0.00000000E+00  0.00000000E+00
  0.00000000E+00  0.00000000E+00  0.00000000E+00
  0.00000000E+00  0.00000000E+00  0.00000000E+00
  0.00000000E+00  0.00000000E+00  0.00000000E+00
  0.00000000E+00  0.00000000E+00  0.00000000E+00
  0.00000000E+00  0.00000000E+00  0.00000000E+00
  0.00000000E+00  0.00000000E+00  0.00000000E+00
  0.00000000E+00  0.00000000E+00  0.00000000E+00
  0.00000000E+00  0.00000000E+00  0.00000000E+00
  0.00000000E+00  0.00000000E+00  0.00000000E+00
  0.00000000E+00  0.00000000E+00  0.00000000E+00
  0.00000000E+00  0.00000000E+00  0.00000000E+00
  0.00000000E+00  0.00000000E+00  0.00000000E+00
  0.00000000E+00  0.00000000E+00  0.00000000E+00
  0.00000000E+00  0.00000000E+00  0.00000000E+00
  0.00000000E+00  0.00000000E+00  0.00000000E+00
  0.00000000E+00  0.00000000E+00  0.00000000E+00
  0.00000000E+00  0.00000000E+00  0.00000000E+00
  0.00000000E+00  0.00000000E+00  0.00000000E+00
  0.00000000E+00  0.00000000E+00  0.00000000E+00
  0.00000000E+00  0.00000000E+00  0.00000000E+00
  0.00000000E+00  0.00000000E+00  0.00000000E+00
  0.00000000E+00  0.00000000E+00  0.00000000E+00
  0.00000000E+00  0.00000000E+00  0.00000000E+00
  0.00000000E+00  0.00000000E+00  0.00000000E+00
  0.00000000E+00  0.00000000E+00  0.00000000E+00
  0.00000000E+00  0.00000000E+00  0.00000000E+00
  0.00000000E+00  0.00000000E+00  0.00000000E+00
  0.00000000E+00  0.00000000E+00  0.00000000E+00
  0.00000000E+00  0.00000000E+00  0.00000000E+00
  0.00000000E+00  0.00000000E+00  0.00000000E+00
  0.00000000E+00  0.00000000E+00  0.00000000E+00
  0.00000000E+00  0.00000000E+00  0.00000000E+00
  0.00000000E+00  0.00000000E+00  0.00000000E+00
  0.00000000E+00  0.00000000E+00  0.00000000E+00
  0.00000000E+00  0.00000000E+00  0.00000000E+00
  0.00000000E+00  0.00000000E+00  0.00000000E+00
  0.00000000E+00  0.00000000E+00  0.00000000E+00
  0.00000000E+00  0.00000000E+00  0.00000000E+00
  0.00000000E+00  0.00000000E+00  0.00000000E+00
  0.00000000E+00  0.00000000E+00  0.00000000E+00
  0.00000000E+00  0.00000000E+00  0.00000000E+00
  0.00000000E+00  0.00000000E+00  0.00000000E+00
  0.00000000E+00  0.00000000E+00  0.00000000E+00
  0.00000000E+00  0.00000000E+00  0.00000000E+00
  0.00000000E+00  0.00000000E+00  0.00000000E+00
  0.00000000E+00  0.00000000E+00  0.00000000E+00
  0.00000000E+00  0.00000000E+00  0.00000000E+00
  0.00000000E+00  0.00000000E+00  0.00000000E+00
  0.00000000E+00  0.00000000E+00  0.00000000E+00
  0.00000000E+00  0.00000000E+00  0.00000000E+00
  0.00000000E+00  0.00000000E+00  0.00000000E+00
  0.00000000E+00  0.00000000E+00  0.00000000E+00
  0.00000000E+00  0.00000000E+00  0.00000000E+00
  0.00000000E+00  0.00000000E+00  0.00000000E+00
  0.00000000E+00  0.00000000E+00  0.00000000E+00
  0.00000000E+00  0.00000000E+00  0.00000000E+00
  0.00000000E+00  0.00000000E+00  0.00000000E+00
  0.00000000E+00  0.00000000E+00  0.00000000E+00
  0.00000000E+00  0.00000000E+00  0.00000000E+00
  0.00000000E+00  0.00000000E+00  0.00000000E+00
  0.00000000E+00  0.00000000E+00  0.00000000E+00
  0.00000000E+00  0.00000000E+00  0.00000000E+00
  0.00000000E+00  0.00000000E+00  0.00000000E+00
  0.00000000E+00  0.00000000E+00  0.00000000E+00
  0.00000000E+00  0.00000000E+00  0.00000000E+00
  0.00000000E+00  0.00000000E+00  0.00000000E+00
  0.00000000E+00  0.00000000E+00  0.00000000E+00
  0.00000000E+00  0.00000000E+00  0.00000000E+00
  0.00000000E+00  0.00000000E+00  0.00000000E+00
  0.00000000E+00  0.00000000E+00  0.00000000E+00
  0.00000000E+00  0.00000000E+00  0.00000000E+00
  0.00000000E+00  0.00000000E+00  0.00000000E+00
  0.00000000E+00  0.00000000E+00  0.00000000E+00
  0.00000000E+00  0.00000000E+00  0.00000000E+00
  0.00000000E+00  0.00000000E+00  0.00000000E+00
  0.00000000E+00  0.00000000E+00  0.00000000E+00
  0.00000000E+00  0.00000000E+00  0.00000000E+00
  0.00000000E+00  0.00000000E+00  0.00000000E+00
  0.00000000E+00  0.00000000E+00  0.00000000E+00
  0.00000000E+00  0.00000000E+00  0.00000000E+00
  0.00000000E+00  0.00000000E+00  0.00000000E+00
  0.00000000E+00  0.00000000E+00  0.00000000E+00
  0.00000000E+00  0.00000000E+00  0.00000000E+00
  0.00000000E+00  0.00000000E+00  0.00000000E+00
  0.00000000E+00  0.00000000E+00  0.00000000E+00
  0.00000000E+00  0.00000000E+00  0.00000000E+00
  0.00000000E+00  0.00000000E+00  0.00000000E+00
  0.00000000E+00  0.00000000E+00  0.00000000E+00
  0.00000000E+00  0.00000000E+00  0.00000000E+00
  0.00000000E+00  0.00000000E+00  0.00000000E+00
  0.00000000E+00  0.00000000E+00  0.00000000E+00
  0.00000000E+00  0.00000000E+00  0.00000000E+00
  0.00000000E+00  0.00000000E+00  0.00000000E+00
  0.00000000E+00  0.00000000E+00  0.00000000E+00
  0.00000000E+00  0.00000000E+00  0.00000000E+00
  0.00000000E+00  0.00000000E+00  0.00000000E+00
  0.00000000E+00  0.00000000E+00  0.00000000E+00
  0.00000000E+00  0.00000000E+00  0.00000000E+00
  0.00000000E+00  0.00000000E+00  0.00000000E+00
  0.00000000E+00  0.00000000E+00  0.00000000E+00
  0.00000000E+00  0.00000000E+00  0.00000000E+00
  0.00000000E+00  0.00000000E+00  0.00000000E+00
  0.00000000E+00  0.00000000E+00  0.00000000E+00
  0.00000000E+00  0.00000000E+00  0.00000000E+00
  0.00000000E+00  0.00000000E+00  0.00000000E+00
  0.00000000E+00  0.00000000E+00  0.00000000E+00
  0.00000000E+00  0.00000000E+00  0.00000000E+00
  0.00000000E+00  0.00000000E+00  0.00000000E+00
  0.00000000E+00  0.00000000E+00  0.00000000E+00
  0.00000000E+00  0.00000000E+00  0.00000000E+00
  0.00000000E+00  0.00000000E+00  0.00000000E+00
  0.00000000E+00  0.00000000E+00  0.00000000E+00
  0.00000000E+00  0.00000000E+00  0.00000000E+00
  0.00000000E+00  0.00000000E+00  0.00000000E+00
  0.00000000E+00  0.00000000E+00  0.00000000E+00
  0.00000000E+00  0.00000000E+00  0.00000000E+00
  0.00000000E+00  0.00000000E+00  0.00000000E+00
  0.00000000E+00  0.00000000E+00  0.00000000E+00
