-40.0% N(Distort)=4 ~[0.5,0.5,0.5]      
   1.00000000000000     
    12.5998379999999983    0.0000000000000004    0.0000000000000004
     0.0000000000000004   12.5998379999999983   -0.0000000000000004
    -0.0000000000000004   -0.0000000000000004   12.5998379999999983
   Mg   O 
   109   107
Direct
  0.6667967557076325 -0.0005562339079955  0.0002371388225192
  0.8334518423017494  0.1657477488726537  0.0002774258690762
  0.8332770877316656 -0.0006245371600741  0.1666205514409167
  0.3325402019575756 -0.0004759056975406  0.0001238693772552
  0.4997060122846431  0.1648375593763119 -0.0013746871256866
  0.6671884890311255  0.3321716069713879  0.9991692761485359
  0.8337141201362716  0.4992770374914643  0.0000614720112443
  0.4994997811513358 -0.0004243643179759  0.1661916609490968
  0.6670261589273180  0.1652800153393108  0.1663714754153310
  0.8332701483807680  0.3321823526076875  0.1666054439053253
  0.6666246703727952  0.0003256763999533  0.3332672238103371
  0.8335066980907921  0.1652797104134592  0.3328714461697763
  0.8337107508179114 -0.0004089462860764  0.5003948625235254
 -0.0003037676059689 -0.0005356444805210  0.0002117990457030
  0.1661014169628073  0.1658699264261176 -0.0002127285223040
  0.3323360432371135  0.3320910638785882 -0.0017398447867209
  0.4994678167798077  0.4992092551313250  0.9957008938768728
  0.6666503449158585  0.6663898621416863  0.9993303346801620
  0.8332738281132033  0.8330542103564937  0.0002716353493421
  0.1659909458641092 -0.0006247113732161  0.1664489913674949
  0.3321708887183724  0.1652281124825332  0.1656685123277037
  0.4998220190040223  0.3261831090720730  0.1588542923520529
  0.6670930335012158  0.4989932932004079  0.1632228401359440
  0.8343165747522180  0.6663344114956651  0.1655569126447314
  0.3324257026650809  0.0004520292970893  0.3327155502845706
  0.4994279954994224  0.1648313392553592  0.3320969781977748
  0.6665794311986758  0.3310389310700199  0.3333109254945095
  0.8366225472485141  0.4990118145485309  0.3327816757665372
  0.4994571575190735  0.0039725650106295  0.5004538312144878
  0.6677866516420630  0.1648734092041613  0.5004524533920174
  0.8409438873593696  0.3262758854540373  0.5000719432086994
  0.6671931912042101  0.0004894230231774  0.6674693016817144
  0.8342022756097444  0.1652665063699134  0.6677070917535106
  0.8334572624230814 -0.0006013325133771  0.8339206146106670
 -0.0002505751161665  0.3322826994833116  0.0001300218270093
  0.1650909150778374  0.4994594733027779 -0.0013836123444952
  0.3324495899810889  0.6669416018203873 -0.0007861830234660
  0.4995416621234366  0.8334768858405570  0.0001016363620663
 -0.0003883440712637  0.1657312882610025  0.1664473097924064
  0.1654704865186700  0.3319474308472016  0.1656664466154928
  0.3265348438176181  0.4995715997699776  0.1589101901562398
  0.4992540518748810  0.6668474511027209  0.1632954440449000
  0.6665515588658965  0.8340906317875174  0.1655994451650506
 -0.0003333948477378 -0.0005674945244391  0.3331155288824563
  0.1655153494962844  0.1652738448490249  0.3328382734728953
  0.3289468247995908  0.3286767946173560  0.3327512924017845
  0.4811674498193010  0.4806171563958914  0.3008441007833430
  0.6724156064792132  0.6722358653062623  0.3274602825216879
  0.8343024204351804  0.8341017147162543  0.3333403427176660
  0.1650946507823874  0.0010455774438321  0.5002072053810410
  0.3323833441476565  0.1663769300030525  0.5001655347924948
  0.4997209674541394  0.3294824603291072  0.5001745616430481
  0.6988715739918452  0.4808440583154181  0.5187309953144248
  0.8366008628009204  0.6668962392514429  0.5006476614806293
  0.3323495075655218  0.0014021776567574  0.6675761803402616
  0.4997425634497907  0.1663952160574836  0.6675121909072583
  0.6671366180090036  0.3287393350633980  0.6709068274379850
  0.8409590677570288  0.4996006197089569  0.6733323144062714
  0.4997366906663795  0.0010541712052774  0.8348320355080922
  0.6670712284633517  0.1653040927632975  0.8343671077104955
  0.8342282141023506  0.3319709779518568  0.8343999647512685
 -0.0003049893244484  0.6665684294502301  0.0002068894300637
  0.1660047167503773  0.8332080333930250  0.0002795980155471
 -0.0001934865385836  0.4992705693200060  0.1661862615747844
  0.1655349901023558  0.6667620557102431  0.1663804449478447
  0.3324427430011447  0.8330344995179911  0.1666292187647260
  0.0006845790221241  0.3321859391747911  0.3327035594411478
  0.1651345980776658  0.4991819609435261  0.3320892221422129
  0.3313691738140404  0.6663208934960947  0.3333188383558843
  0.4992294168903325  0.8363729541355106  0.3328340491676444
  0.0012488934540354  0.1648675111261256  0.5001928231432643
  0.1665965933852218  0.3321640041975656  0.5001628580179552
  0.3297568130316702  0.4994626355612093  0.5001735331836055
  0.4810992651122607  0.6988694505132667  0.5190376238518806
  0.6670930250270251  0.8364392777830623  0.5006674737156038
 -0.0002288868200120 -0.0004604597111294  0.6673805603835156
  0.1665588556421384  0.1663422608779894  0.6671582244481669
  0.3331595758566664  0.3329258975735647  0.6667444928899159
  0.4997193370265356  0.4994700175611694  0.6701911070909921
  0.6665820765779468  0.6663437450262633  0.6686088535286872
  0.8332835439475014  0.8330615170300810  0.6674785673898553
  0.1661212049213859 -0.0001221852724475  0.8338097713477404
  0.3327611699324925  0.1663396665842354  0.8333214240967147
  0.4997413461156446  0.3321718963047832  0.8332890903537095
  0.6678179906282237  0.4991934206748938  0.8347680272434861
  0.8335345306149043  0.6667852210033880  0.8343622481062872
 -0.0003735925458441  0.8330347800450656  0.1666296964152354
  0.0005696373681791  0.6664024312565363  0.3332493170526024
  0.1655496166410554  0.8332753480338060  0.3328959089737605
  0.0041784239278533  0.4992363918477311  0.5004009545405783
  0.1651434309691736  0.6675459901273160  0.5004340691720863
  0.3265307206221400  0.8407835671104877  0.5000844583443211
  0.0015996338723470  0.3321109051963075  0.6675375897739754
  0.1666084991345242  0.4995044304444318  0.6674791179670171
  0.3289844688545444  0.6668804139358124  0.6709517510533330
  0.4998404640785560  0.8408372131956567  0.6734491403906496
  0.0000957824702081  0.1658892682643146  0.8337910269449039
  0.1665644624292724  0.3325184096021709  0.8333143526639449
  0.3323966677979052  0.4995077850191855  0.8332888318645246
  0.4994710186430609  0.6675558380524912  0.8348249086902642
  0.6670346157011037  0.8333000740523375  0.8343845762700649
 -0.0001654883376935  0.8334782442032659  0.5003849713320518
  0.0007099469537391  0.6669591581142447  0.6674406273119727
  0.1655137993324888  0.8339756513199473  0.6677064183281469
  0.0012687140466604  0.4994781266671718  0.8347842599781181
  0.1655550312799507  0.6668395901490717  0.8343441613428978
  0.3322315395665259  0.8339776505614687  0.8344156399248869
 -0.0003726626033849  0.8332234984618474  0.8339184474779984
  0.5560784772280043  0.5561365947919376  0.4435926132187762
  0.8328140167089332  0.1661619074040324  0.1670735008290377
 -0.0006348969986792  0.3327652812875597  0.1668124897805788
 -0.0004659469896820  0.1659795983484541  0.3334413891223971
  0.4996429853064150  0.1649840029213634  0.1655807508328975
  0.6654371084738879  0.3335801543788809  0.1672283992556960
  0.8316373587980295  0.4994539235326594  0.1682376699156685
 -0.0005826518909763  0.6659594565640294  0.1670905626285278
  0.6663471138415157  0.1665175407725491  0.3335361679597991
  0.8326252748406361  0.3336121637911421  0.3344328208198831
  0.0007732101344052  0.4993516147054085  0.3330099861357023
  0.8342943229011768  0.1650321172177353  0.5002470273888097
  0.0022794982665660  0.3318306424205761  0.5000985707873344
  0.0001664940161047  0.1661594081092613  0.6668036545592101
  0.1663155416792955  0.1660792451602111  0.1665505640663738
  0.3335717623659132  0.3333044889634554  0.1659157425146639
  0.4987808939640485  0.4984924590338496  0.1554054249161227
  0.6654273832411195  0.6651708221608226  0.1669848807750231
  0.8324396755123449  0.8322143620300672  0.1674395948584175
 -0.0005101862901544 -0.0007654375999711  0.1669436021385090
  0.3326313026489183  0.1658486414066722  0.3329687929489749
  0.4984096930744383  0.3297659084728554  0.3307828449752044
  0.6594602581623975  0.4996773249748398  0.3403303580515933
  0.8328740714559716  0.6651895134130666  0.3344776383284446
 -0.0005777831699195  0.8325592058766701  0.3337044085881024
  0.5001200226038357  0.1672301429185380  0.4997716469635680
  0.6690779158744120  0.3298773593537369  0.5014774214778921
  0.8444016979339044  0.4985724569207495  0.5010925491264973
  0.0007819429928048  0.6666290885466436  0.5002562005650469
  0.6669197281684353  0.1658805482510997  0.6672438817029743
  0.8339411249840749  0.3333487196811727  0.6663108855826112
  0.0023246234091269  0.4995439519403895  0.6678044211849000
  0.8333405185073061  0.1661037661348219  0.8335583756595428
  0.0001784500743707  0.3328638037986540  0.8335077051027244
 -0.0003053680557390  0.1660718728221434  0.0001931835014132
  0.1652687563902694  0.4994016303301722  0.1655796000799819
  0.3338518643968637  0.6651978802679365  0.1672113498140916
  0.4997202024172889  0.8314299490204916  0.1682534498704629
  0.6661987380999811 -0.0008089047271763  0.1670950784350511
  0.1661054015264784  0.3323976521184372  0.3329785980806269
  0.3302254407082562  0.4981196155509003  0.3307774692459635
  0.4999000343072029  0.6594844506358100  0.3402396565964965
  0.6654075589865278  0.8326808844121084  0.3344917162711640
  0.8327984191965018 -0.0008081599651378  0.3336989627162339
  0.1668109491381883  0.1666195774874027  0.4999340363573911
  0.3341306715874680  0.3338522854685652  0.4992187955686700
  0.6594673915384817  0.6594092166662663  0.4999996659531780
  0.8316587016461862  0.8314351465868931  0.5001919770116710
  0.9994880359784144 -0.0007474800274336  0.5002001435584238
  0.3334390463283458  0.1672355334794856  0.6664651436397618
  0.5006752726967142  0.3338602683911228  0.6657791302923984
  0.6690912815779670  0.4981575817771808  0.6697261931462231
  0.8326644067287938  0.6652292736458321  0.6660191810515373
 -0.0006098810225451  0.8328474486680083  0.6668835527562299
  0.4999840523424005  0.1666165474375540  0.8330753179843841
  0.6669352140674223  0.3324071656040175  0.8337619698942420
  0.8343269464673376  0.4994271698663424  0.8346072594713403
 -0.0004285004565445  0.6662222332722740  0.8336318069253550
  0.6664592305895545  0.1659912749464774  0.0003412749327109
  0.8330799031026739  0.3327737513437218  0.0004969335517564
 -0.0005078912950536  0.4994704382641255  0.0003986815063374
  0.1664168692726525  0.8325517274215136  0.1670826689270793
  0.3330146712502510 -0.0008798770166753  0.1668038257837230
  0.1667925320174338  0.6660891927012945  0.3335514577622148
  0.3338310014515204  0.8324215681992166  0.3344524459425013
  0.4995967649988818  0.0005232000656772  0.3330330033709662
  0.1675021053965125  0.4998789732130431  0.4997406802790713
  0.3302112390171807  0.6688480677535680  0.5015088246468247
  0.4987719296388070  0.8443063546430817  0.5011859405839105
  0.6668682684915967  0.0005371486239748  0.5002799109877298
  0.1674789742221025  0.3331983646745377  0.6664370228749772
  0.3341345834458679  0.5004059547767516  0.6657633574238694
  0.4984071896847416  0.6688697651459794  0.6698656890681480
  0.6654597968931208  0.8324349311930034  0.6660645950612444
  0.8330924651294040 -0.0008408615445239  0.6668830875380268
  0.1666002895844236  0.1663847635108259  0.8332989197601283
  0.3334447332310805  0.3332039435639984  0.8324000135365965
  0.5001369600823323  0.4998661841723113  0.8324154197738081
  0.6663748722463527  0.6661098432837917  0.8331476321469052
  0.8328246741069851  0.8325693147004398  0.8334821240598480
 -0.0002930698760598 -0.0005192399544761  0.8335929232762855
  0.3330789253991557  0.1661399854231792 -0.0003011678229291
  0.4997763228383622  0.3317929370654227 -0.0024447647850602
  0.6668819816372121  0.4993406426699011 -0.0008983162222928
  0.8328177025034285  0.6659672197339523  0.0004677245203103
 -0.0004901476675635  0.8327173921433602  0.0004039783365182
  0.1662142310877781 -0.0006975094432942  0.3334502104963465
  0.1652691487975449  0.8340756509216484  0.5002539157180782
  0.3320342702705756  0.0021051038943353  0.5001143353901800
  0.1661433085882176  0.6666799783664797  0.6672094401591270
  0.3336104068351823  0.8337156894825178  0.6663294446140852
  0.4998004037301552  0.0021242874796520  0.6678756762917674
  0.1668324252745776  0.4997420789286093  0.8330414480548997
  0.3326602319975548  0.6666737000566003  0.8337998545214047
  0.4996832809176224  0.8340974547566993  0.8346731444063389
  0.6664647288906359 -0.0006634493259929  0.8336692768938437
  0.1663640166808518  0.3328424429533423 -0.0003019735142745
  0.3320488165890130  0.4995141924482419  0.9975654957925495
  0.4996272034902656  0.6666160525359071 -0.0008612226790425
  0.6662114956778481  0.8325810161190746  0.0004852423498883
  0.8329562776794895 -0.0007460819477466  0.0004018468776654
  0.1664045993720928 -0.0000317300841307  0.6668242865271451
  0.1663378201164692  0.8331243481441352  0.8335695359677252
  0.3331181837926447 -0.0000399799577708  0.8335095232734532
  0.1662400659603289  0.6662008563467282  0.0003436431207721
  0.3330336160927322  0.8328365184909720  0.0005218855995879
  0.4997153910954488 -0.0007538928567088  0.0004224921880359
  0.1663093966769709 -0.0005387476245487  0.0002046382207865
 
  0.00000000E+00  0.00000000E+00  0.00000000E+00
  0.00000000E+00  0.00000000E+00  0.00000000E+00
  0.00000000E+00  0.00000000E+00  0.00000000E+00
  0.00000000E+00  0.00000000E+00  0.00000000E+00
  0.00000000E+00  0.00000000E+00  0.00000000E+00
  0.00000000E+00  0.00000000E+00  0.00000000E+00
  0.00000000E+00  0.00000000E+00  0.00000000E+00
  0.00000000E+00  0.00000000E+00  0.00000000E+00
  0.00000000E+00  0.00000000E+00  0.00000000E+00
  0.00000000E+00  0.00000000E+00  0.00000000E+00
  0.00000000E+00  0.00000000E+00  0.00000000E+00
  0.00000000E+00  0.00000000E+00  0.00000000E+00
  0.00000000E+00  0.00000000E+00  0.00000000E+00
  0.00000000E+00  0.00000000E+00  0.00000000E+00
  0.00000000E+00  0.00000000E+00  0.00000000E+00
  0.00000000E+00  0.00000000E+00  0.00000000E+00
  0.00000000E+00  0.00000000E+00  0.00000000E+00
  0.00000000E+00  0.00000000E+00  0.00000000E+00
  0.00000000E+00  0.00000000E+00  0.00000000E+00
  0.00000000E+00  0.00000000E+00  0.00000000E+00
  0.00000000E+00  0.00000000E+00  0.00000000E+00
  0.00000000E+00  0.00000000E+00  0.00000000E+00
  0.00000000E+00  0.00000000E+00  0.00000000E+00
  0.00000000E+00  0.00000000E+00  0.00000000E+00
  0.00000000E+00  0.00000000E+00  0.00000000E+00
  0.00000000E+00  0.00000000E+00  0.00000000E+00
  0.00000000E+00  0.00000000E+00  0.00000000E+00
  0.00000000E+00  0.00000000E+00  0.00000000E+00
  0.00000000E+00  0.00000000E+00  0.00000000E+00
  0.00000000E+00  0.00000000E+00  0.00000000E+00
  0.00000000E+00  0.00000000E+00  0.00000000E+00
  0.00000000E+00  0.00000000E+00  0.00000000E+00
  0.00000000E+00  0.00000000E+00  0.00000000E+00
  0.00000000E+00  0.00000000E+00  0.00000000E+00
  0.00000000E+00  0.00000000E+00  0.00000000E+00
  0.00000000E+00  0.00000000E+00  0.00000000E+00
  0.00000000E+00  0.00000000E+00  0.00000000E+00
  0.00000000E+00  0.00000000E+00  0.00000000E+00
  0.00000000E+00  0.00000000E+00  0.00000000E+00
  0.00000000E+00  0.00000000E+00  0.00000000E+00
  0.00000000E+00  0.00000000E+00  0.00000000E+00
  0.00000000E+00  0.00000000E+00  0.00000000E+00
  0.00000000E+00  0.00000000E+00  0.00000000E+00
  0.00000000E+00  0.00000000E+00  0.00000000E+00
  0.00000000E+00  0.00000000E+00  0.00000000E+00
  0.00000000E+00  0.00000000E+00  0.00000000E+00
  0.00000000E+00  0.00000000E+00  0.00000000E+00
  0.00000000E+00  0.00000000E+00  0.00000000E+00
  0.00000000E+00  0.00000000E+00  0.00000000E+00
  0.00000000E+00  0.00000000E+00  0.00000000E+00
  0.00000000E+00  0.00000000E+00  0.00000000E+00
  0.00000000E+00  0.00000000E+00  0.00000000E+00
  0.00000000E+00  0.00000000E+00  0.00000000E+00
  0.00000000E+00  0.00000000E+00  0.00000000E+00
  0.00000000E+00  0.00000000E+00  0.00000000E+00
  0.00000000E+00  0.00000000E+00  0.00000000E+00
  0.00000000E+00  0.00000000E+00  0.00000000E+00
  0.00000000E+00  0.00000000E+00  0.00000000E+00
  0.00000000E+00  0.00000000E+00  0.00000000E+00
  0.00000000E+00  0.00000000E+00  0.00000000E+00
  0.00000000E+00  0.00000000E+00  0.00000000E+00
  0.00000000E+00  0.00000000E+00  0.00000000E+00
  0.00000000E+00  0.00000000E+00  0.00000000E+00
  0.00000000E+00  0.00000000E+00  0.00000000E+00
  0.00000000E+00  0.00000000E+00  0.00000000E+00
  0.00000000E+00  0.00000000E+00  0.00000000E+00
  0.00000000E+00  0.00000000E+00  0.00000000E+00
  0.00000000E+00  0.00000000E+00  0.00000000E+00
  0.00000000E+00  0.00000000E+00  0.00000000E+00
  0.00000000E+00  0.00000000E+00  0.00000000E+00
  0.00000000E+00  0.00000000E+00  0.00000000E+00
  0.00000000E+00  0.00000000E+00  0.00000000E+00
  0.00000000E+00  0.00000000E+00  0.00000000E+00
  0.00000000E+00  0.00000000E+00  0.00000000E+00
  0.00000000E+00  0.00000000E+00  0.00000000E+00
  0.00000000E+00  0.00000000E+00  0.00000000E+00
  0.00000000E+00  0.00000000E+00  0.00000000E+00
  0.00000000E+00  0.00000000E+00  0.00000000E+00
  0.00000000E+00  0.00000000E+00  0.00000000E+00
  0.00000000E+00  0.00000000E+00  0.00000000E+00
  0.00000000E+00  0.00000000E+00  0.00000000E+00
  0.00000000E+00  0.00000000E+00  0.00000000E+00
  0.00000000E+00  0.00000000E+00  0.00000000E+00
  0.00000000E+00  0.00000000E+00  0.00000000E+00
  0.00000000E+00  0.00000000E+00  0.00000000E+00
  0.00000000E+00  0.00000000E+00  0.00000000E+00
  0.00000000E+00  0.00000000E+00  0.00000000E+00
  0.00000000E+00  0.00000000E+00  0.00000000E+00
  0.00000000E+00  0.00000000E+00  0.00000000E+00
  0.00000000E+00  0.00000000E+00  0.00000000E+00
  0.00000000E+00  0.00000000E+00  0.00000000E+00
  0.00000000E+00  0.00000000E+00  0.00000000E+00
  0.00000000E+00  0.00000000E+00  0.00000000E+00
  0.00000000E+00  0.00000000E+00  0.00000000E+00
  0.00000000E+00  0.00000000E+00  0.00000000E+00
  0.00000000E+00  0.00000000E+00  0.00000000E+00
  0.00000000E+00  0.00000000E+00  0.00000000E+00
  0.00000000E+00  0.00000000E+00  0.00000000E+00
  0.00000000E+00  0.00000000E+00  0.00000000E+00
  0.00000000E+00  0.00000000E+00  0.00000000E+00
  0.00000000E+00  0.00000000E+00  0.00000000E+00
  0.00000000E+00  0.00000000E+00  0.00000000E+00
  0.00000000E+00  0.00000000E+00  0.00000000E+00
  0.00000000E+00  0.00000000E+00  0.00000000E+00
  0.00000000E+00  0.00000000E+00  0.00000000E+00
  0.00000000E+00  0.00000000E+00  0.00000000E+00
  0.00000000E+00  0.00000000E+00  0.00000000E+00
  0.00000000E+00  0.00000000E+00  0.00000000E+00
  0.00000000E+00  0.00000000E+00  0.00000000E+00
  0.00000000E+00  0.00000000E+00  0.00000000E+00
  0.00000000E+00  0.00000000E+00  0.00000000E+00
  0.00000000E+00  0.00000000E+00  0.00000000E+00
  0.00000000E+00  0.00000000E+00  0.00000000E+00
  0.00000000E+00  0.00000000E+00  0.00000000E+00
  0.00000000E+00  0.00000000E+00  0.00000000E+00
  0.00000000E+00  0.00000000E+00  0.00000000E+00
  0.00000000E+00  0.00000000E+00  0.00000000E+00
  0.00000000E+00  0.00000000E+00  0.00000000E+00
  0.00000000E+00  0.00000000E+00  0.00000000E+00
  0.00000000E+00  0.00000000E+00  0.00000000E+00
  0.00000000E+00  0.00000000E+00  0.00000000E+00
  0.00000000E+00  0.00000000E+00  0.00000000E+00
  0.00000000E+00  0.00000000E+00  0.00000000E+00
  0.00000000E+00  0.00000000E+00  0.00000000E+00
  0.00000000E+00  0.00000000E+00  0.00000000E+00
  0.00000000E+00  0.00000000E+00  0.00000000E+00
  0.00000000E+00  0.00000000E+00  0.00000000E+00
  0.00000000E+00  0.00000000E+00  0.00000000E+00
  0.00000000E+00  0.00000000E+00  0.00000000E+00
  0.00000000E+00  0.00000000E+00  0.00000000E+00
  0.00000000E+00  0.00000000E+00  0.00000000E+00
  0.00000000E+00  0.00000000E+00  0.00000000E+00
  0.00000000E+00  0.00000000E+00  0.00000000E+00
  0.00000000E+00  0.00000000E+00  0.00000000E+00
  0.00000000E+00  0.00000000E+00  0.00000000E+00
  0.00000000E+00  0.00000000E+00  0.00000000E+00
  0.00000000E+00  0.00000000E+00  0.00000000E+00
  0.00000000E+00  0.00000000E+00  0.00000000E+00
  0.00000000E+00  0.00000000E+00  0.00000000E+00
  0.00000000E+00  0.00000000E+00  0.00000000E+00
  0.00000000E+00  0.00000000E+00  0.00000000E+00
  0.00000000E+00  0.00000000E+00  0.00000000E+00
  0.00000000E+00  0.00000000E+00  0.00000000E+00
  0.00000000E+00  0.00000000E+00  0.00000000E+00
  0.00000000E+00  0.00000000E+00  0.00000000E+00
  0.00000000E+00  0.00000000E+00  0.00000000E+00
  0.00000000E+00  0.00000000E+00  0.00000000E+00
  0.00000000E+00  0.00000000E+00  0.00000000E+00
  0.00000000E+00  0.00000000E+00  0.00000000E+00
  0.00000000E+00  0.00000000E+00  0.00000000E+00
  0.00000000E+00  0.00000000E+00  0.00000000E+00
  0.00000000E+00  0.00000000E+00  0.00000000E+00
  0.00000000E+00  0.00000000E+00  0.00000000E+00
  0.00000000E+00  0.00000000E+00  0.00000000E+00
  0.00000000E+00  0.00000000E+00  0.00000000E+00
  0.00000000E+00  0.00000000E+00  0.00000000E+00
  0.00000000E+00  0.00000000E+00  0.00000000E+00
  0.00000000E+00  0.00000000E+00  0.00000000E+00
  0.00000000E+00  0.00000000E+00  0.00000000E+00
  0.00000000E+00  0.00000000E+00  0.00000000E+00
  0.00000000E+00  0.00000000E+00  0.00000000E+00
  0.00000000E+00  0.00000000E+00  0.00000000E+00
  0.00000000E+00  0.00000000E+00  0.00000000E+00
  0.00000000E+00  0.00000000E+00  0.00000000E+00
  0.00000000E+00  0.00000000E+00  0.00000000E+00
  0.00000000E+00  0.00000000E+00  0.00000000E+00
  0.00000000E+00  0.00000000E+00  0.00000000E+00
  0.00000000E+00  0.00000000E+00  0.00000000E+00
  0.00000000E+00  0.00000000E+00  0.00000000E+00
  0.00000000E+00  0.00000000E+00  0.00000000E+00
  0.00000000E+00  0.00000000E+00  0.00000000E+00
  0.00000000E+00  0.00000000E+00  0.00000000E+00
  0.00000000E+00  0.00000000E+00  0.00000000E+00
  0.00000000E+00  0.00000000E+00  0.00000000E+00
  0.00000000E+00  0.00000000E+00  0.00000000E+00
  0.00000000E+00  0.00000000E+00  0.00000000E+00
  0.00000000E+00  0.00000000E+00  0.00000000E+00
  0.00000000E+00  0.00000000E+00  0.00000000E+00
  0.00000000E+00  0.00000000E+00  0.00000000E+00
  0.00000000E+00  0.00000000E+00  0.00000000E+00
  0.00000000E+00  0.00000000E+00  0.00000000E+00
  0.00000000E+00  0.00000000E+00  0.00000000E+00
  0.00000000E+00  0.00000000E+00  0.00000000E+00
  0.00000000E+00  0.00000000E+00  0.00000000E+00
  0.00000000E+00  0.00000000E+00  0.00000000E+00
  0.00000000E+00  0.00000000E+00  0.00000000E+00
  0.00000000E+00  0.00000000E+00  0.00000000E+00
  0.00000000E+00  0.00000000E+00  0.00000000E+00
  0.00000000E+00  0.00000000E+00  0.00000000E+00
  0.00000000E+00  0.00000000E+00  0.00000000E+00
  0.00000000E+00  0.00000000E+00  0.00000000E+00
  0.00000000E+00  0.00000000E+00  0.00000000E+00
  0.00000000E+00  0.00000000E+00  0.00000000E+00
  0.00000000E+00  0.00000000E+00  0.00000000E+00
  0.00000000E+00  0.00000000E+00  0.00000000E+00
  0.00000000E+00  0.00000000E+00  0.00000000E+00
  0.00000000E+00  0.00000000E+00  0.00000000E+00
  0.00000000E+00  0.00000000E+00  0.00000000E+00
  0.00000000E+00  0.00000000E+00  0.00000000E+00
  0.00000000E+00  0.00000000E+00  0.00000000E+00
  0.00000000E+00  0.00000000E+00  0.00000000E+00
  0.00000000E+00  0.00000000E+00  0.00000000E+00
  0.00000000E+00  0.00000000E+00  0.00000000E+00
  0.00000000E+00  0.00000000E+00  0.00000000E+00
  0.00000000E+00  0.00000000E+00  0.00000000E+00
  0.00000000E+00  0.00000000E+00  0.00000000E+00
  0.00000000E+00  0.00000000E+00  0.00000000E+00
  0.00000000E+00  0.00000000E+00  0.00000000E+00
  0.00000000E+00  0.00000000E+00  0.00000000E+00
  0.00000000E+00  0.00000000E+00  0.00000000E+00
  0.00000000E+00  0.00000000E+00  0.00000000E+00
  0.00000000E+00  0.00000000E+00  0.00000000E+00
  0.00000000E+00  0.00000000E+00  0.00000000E+00
  0.00000000E+00  0.00000000E+00  0.00000000E+00
  0.00000000E+00  0.00000000E+00  0.00000000E+00
  0.00000000E+00  0.00000000E+00  0.00000000E+00
