KPOINTS from doped, with reciprocal_density = 640/Å⁻³
0
Gamma
17 17 10
