KPOINTS from doped, with reciprocal_density = 115/Å⁻³
0
Gamma
9 9 6
