Γ-only KPOINTS from doped
0
Gamma
1 1 1
