Mg4
1.0
   1.6018580000000000   -2.7745000000000002    0.0000000000000000
   1.6018580000000000    2.7745000000000002    0.0000000000000000
   0.0000000000000000    0.0000000000000000   10.3212869999999999
Mg
4
direct
   0.0000000000000000    0.0000000000000000    0.0000000000000000 Mg
   0.3333330000000000    0.6666670000000000    0.2500000000000000 Mg
   0.0000000000000000    0.0000000000000000    0.5000000000000000 Mg
   0.6666670000000000    0.3333330000000000    0.7500000000000000 Mg
