KPOINTS from doped, with reciprocal_density = 870/Å⁻³
0
Gamma
17 17 17
