pymatgen with grid density = 1415 / number of atoms
0
Gamma
8 8 8
