pymatgen with grid density = 981 / number of atoms
0
Gamma
6 6 6
