-20.0%_BDM__vac_4_Se[0.08333333 0.555145
   1.0000000000000000     
    11.8576449999999998    0.0000000000000000    0.0000000000000000
     0.0000000000000000   11.5459130000000005    0.0000000000000000
     0.0000000000000000    0.0000000000000000   11.9281419999999994
   O    Sb   Se
     1    24    35
Direct
  0.0837497789317126  0.5925418079300879  0.9124134844631103
  0.2545276372445047  0.0324604508264404  0.1400104404728525
  0.7514827892336926  0.1694747834385282  0.5302232745415415
  0.4168423073097645  0.1693120433213685  0.5301085050927598
  0.0839991940989550  0.1704702041400036  0.5362478859718467
  0.5841569084722749  0.8294374781609765  0.4647228615635632
  0.2500533362699355  0.8290924071085790  0.4654646023287140
  0.9366581716516637  0.6600291886295698  0.9662811257336091
  0.5837484280455636  0.6591509503373438  0.9616623463930618
  0.2308890155218375  0.6599798815783567  0.9662417563554934
  0.7503283867158700  0.3288770737311996  0.0273398638434471
  0.4177892954656988  0.3290014301464560  0.0269399251670246
  0.0839788622964018  0.3159457616875119  0.0283252833202500
  0.9183593085161538  0.8291525394891622  0.4649191598781395
  0.5842545324352674  0.4626266385060280  0.6436504318799615
  0.9162238519229932  0.4645249881624702  0.6440337368198028
  0.5836768404197353  0.0293783245778835  0.1399081533870997
  0.9129784637142173  0.0322944966372036  0.1399687856488508
  0.4171426861728788  0.9567761963870806  0.8539829170802757
  0.0835037452972850  0.9527606037604024  0.8491408599025596
  0.0844311576077918  0.5354813122627061  0.3533702471709230
  0.4174492305490521  0.5348289002703208  0.3540202295853470
  0.7512332751927758  0.5349375877741507  0.3541835967126640
  0.2522769634624623  0.4640985537997301  0.6439386463207442
  0.7498382913065992  0.9570767853301222  0.8540320298618507
  0.5843437074605282  0.3708180817734387  0.4459028155962394
  0.9177702360710928  0.3710925658363809  0.4474732162379551
  0.0843100121713602  0.6291231655961265  0.5502479202682445
  0.4177546892155815  0.6272638825883420  0.5508273923307887
  0.7506741507941737  0.6275888771849403  0.5509469389130347
  0.4103471092655384  0.5514778848618915  0.8685123453827248
  0.4198264414950030  0.1894127198171565  0.2037013028926303
  0.2516566989705952  0.1257052665437849  0.9441549325863032
  0.5838468907297540  0.1176202212623726  0.9398002881125720
  0.9156745900024061  0.1257014212472287  0.9441556684188660
  0.0840619731010587  0.1886324492427963  0.2058994502900923
  0.7480581559940807  0.1891893247073116  0.2040107830148566
  0.2481663224280711  0.4403089314270210  0.1207716941164798
  0.2506186744737635  0.3707126369714471  0.4473604610187545
  0.7574103554192371  0.5512545532548190  0.8687294360704342
  0.7519556999341928  0.8669895134585406  0.0515479539184767
  0.9164967044982198  0.0543078774644535  0.6278450963271194
  0.0839049415946229  0.8714134310308749  0.0508187478453581
  0.0844277495206550  0.9456215841926106  0.3705720600926921
  0.4172029862789853  0.9433535736283274  0.3691263868115201
  0.7509990772453599  0.9430757009606027  0.3687356232841041
  0.2516994398832806  0.0545680536738473  0.6278576861723912
  0.5842995434701471  0.0548706631199206  0.6259009878566725
  0.5839802917036305  0.4435480284558016  0.1247703573736310
  0.0839879820142264  0.3110605281844758  0.7127888544911647
  0.4172347133389593  0.3072921104075024  0.7069139481055295
  0.7512043183959536  0.3074364604732584  0.7069067503127412
  0.2503206589576890  0.6903625468159807  0.2886137988965942
  0.5841102275524196  0.6896854199599854  0.2888269631936685
  0.9183758496719336  0.6902648851150601  0.2882710400401287
  0.2457491508667500  0.7982669502249726  0.7879815436467529
  0.5837684450619444  0.8027831112038329  0.7874179334685442
  0.9215960150921728  0.7982184385696993  0.7880869882633063
  0.4156044576371840  0.8667564805424121  0.0514524940061748
  0.9199736118342932  0.4402475822091169  0.1211578211479749

  0.00000000E+00  0.00000000E+00  0.00000000E+00
  0.00000000E+00  0.00000000E+00  0.00000000E+00
  0.00000000E+00  0.00000000E+00  0.00000000E+00
  0.00000000E+00  0.00000000E+00  0.00000000E+00
  0.00000000E+00  0.00000000E+00  0.00000000E+00
  0.00000000E+00  0.00000000E+00  0.00000000E+00
  0.00000000E+00  0.00000000E+00  0.00000000E+00
  0.00000000E+00  0.00000000E+00  0.00000000E+00
  0.00000000E+00  0.00000000E+00  0.00000000E+00
  0.00000000E+00  0.00000000E+00  0.00000000E+00
  0.00000000E+00  0.00000000E+00  0.00000000E+00
  0.00000000E+00  0.00000000E+00  0.00000000E+00
  0.00000000E+00  0.00000000E+00  0.00000000E+00
  0.00000000E+00  0.00000000E+00  0.00000000E+00
  0.00000000E+00  0.00000000E+00  0.00000000E+00
  0.00000000E+00  0.00000000E+00  0.00000000E+00
  0.00000000E+00  0.00000000E+00  0.00000000E+00
  0.00000000E+00  0.00000000E+00  0.00000000E+00
  0.00000000E+00  0.00000000E+00  0.00000000E+00
  0.00000000E+00  0.00000000E+00  0.00000000E+00
  0.00000000E+00  0.00000000E+00  0.00000000E+00
  0.00000000E+00  0.00000000E+00  0.00000000E+00
  0.00000000E+00  0.00000000E+00  0.00000000E+00
  0.00000000E+00  0.00000000E+00  0.00000000E+00
  0.00000000E+00  0.00000000E+00  0.00000000E+00
  0.00000000E+00  0.00000000E+00  0.00000000E+00
  0.00000000E+00  0.00000000E+00  0.00000000E+00
  0.00000000E+00  0.00000000E+00  0.00000000E+00
  0.00000000E+00  0.00000000E+00  0.00000000E+00
  0.00000000E+00  0.00000000E+00  0.00000000E+00
  0.00000000E+00  0.00000000E+00  0.00000000E+00
  0.00000000E+00  0.00000000E+00  0.00000000E+00
  0.00000000E+00  0.00000000E+00  0.00000000E+00
  0.00000000E+00  0.00000000E+00  0.00000000E+00
  0.00000000E+00  0.00000000E+00  0.00000000E+00
  0.00000000E+00  0.00000000E+00  0.00000000E+00
  0.00000000E+00  0.00000000E+00  0.00000000E+00
  0.00000000E+00  0.00000000E+00  0.00000000E+00
  0.00000000E+00  0.00000000E+00  0.00000000E+00
  0.00000000E+00  0.00000000E+00  0.00000000E+00
  0.00000000E+00  0.00000000E+00  0.00000000E+00
  0.00000000E+00  0.00000000E+00  0.00000000E+00
  0.00000000E+00  0.00000000E+00  0.00000000E+00
  0.00000000E+00  0.00000000E+00  0.00000000E+00
  0.00000000E+00  0.00000000E+00  0.00000000E+00
  0.00000000E+00  0.00000000E+00  0.00000000E+00
  0.00000000E+00  0.00000000E+00  0.00000000E+00
  0.00000000E+00  0.00000000E+00  0.00000000E+00
  0.00000000E+00  0.00000000E+00  0.00000000E+00
  0.00000000E+00  0.00000000E+00  0.00000000E+00
  0.00000000E+00  0.00000000E+00  0.00000000E+00
  0.00000000E+00  0.00000000E+00  0.00000000E+00
  0.00000000E+00  0.00000000E+00  0.00000000E+00
  0.00000000E+00  0.00000000E+00  0.00000000E+00
  0.00000000E+00  0.00000000E+00  0.00000000E+00
  0.00000000E+00  0.00000000E+00  0.00000000E+00
  0.00000000E+00  0.00000000E+00  0.00000000E+00
  0.00000000E+00  0.00000000E+00  0.00000000E+00
  0.00000000E+00  0.00000000E+00  0.00000000E+00
  0.00000000E+00  0.00000000E+00  0.00000000E+00
