30.0% N(Distort)=4 ~[0.5,0.5,0.5]       
   1.00000000000000     
    12.5998379999999983    0.0000000000000004    0.0000000000000004
     0.0000000000000004   12.5998379999999983   -0.0000000000000004
    -0.0000000000000004   -0.0000000000000004   12.5998379999999983
   Mg   O 
   109   107
Direct
  0.6663844383185452  0.0001715766482073 -0.0009155746087874
  0.8329031373562430  0.1665571826939335 -0.0009648998087793
  0.8330415212785237  0.0002486143188250  0.1653781879084021
  0.3321080672533205  0.0001263525499935 -0.0008351389573131
  0.4991367068765685  0.1661781270889209 -0.0007936023492769
  0.6662856263462370  0.3332271330332758 -0.0000537111225995
  0.8333315027760294  0.5003695932603802 -0.0007944502128879
  0.4992796803231824 -0.0013575678141451  0.1644634053386892
  0.6666317137186588  0.1663354146929585  0.1648510650345261
  0.8331181424886852  0.3328552622568302  0.1648755510905670
  0.6667977962737647 -0.0007902246893516  0.3318127564032570
  0.8328915395217521  0.1666059355281777  0.3318110546972891
  0.8333210965294686  0.0000842045064851  0.4989000763184025
 -0.0006991374324322  0.0001753983924975 -0.0009055089559722
  0.1655738053793668  0.1664330750624279 -0.0009708185309919
  0.3320182275217735  0.3327160844564289  0.0001017987037316
  0.4991079542880830  0.5004533161471065  0.0035669181264313
  0.6668040881899594  0.6674752809637404  0.0000818993082800
  0.8330418391008180  0.8339127806649258 -0.0009758946681875
  0.1656773104248785 -0.0001795603794541  0.1654679673645013
  0.3317790962758074  0.1656971266328611  0.1648496941195887
  0.4990690817280968  0.3321186105455992  0.1644350606862494
  0.6674280872885499  0.5004368394952826  0.1644603772274988
  0.8338132001723227  0.6677054592420640  0.1648528070820988
  0.3319311158615854 -0.0016617319784298  0.3317326283762739
  0.4994400018410625  0.1589215477056397  0.3258518492681292
  0.6662132426296060  0.3332782399242359  0.3306597869895981
  0.8406157531834294  0.5000606112632082  0.3258906913581183
  0.4990853030991424 -0.0042576883609614  0.4988549661621251
  0.6667139564130087  0.1632871806696263  0.4986536940926559
  0.8362757972249830  0.3327896660980768  0.4986609919605213
  0.6662568530324785 -0.0006637694314706  0.6660475397445185
  0.8339572741574049  0.1655262950773260  0.6659967166604978
  0.8328832707022823  0.0002419113678119  0.8326913872804874
 -0.0007105462659321  0.3330797880430842 -0.0009067076650196
  0.1646723131024462  0.5001919268693314  0.0006537868351463
  0.3319333076209668  0.6675856162749252  0.0010168380015626
  0.4992773311548637  0.8348234871655700  0.0006413152381076
 -0.0008123628873181  0.1664383808380081  0.1653697117474075
  0.1651139050217035  0.3328360813733754  0.1649137019708030
  0.3320080908495428  0.5001789863959083  0.1659826371356325
  0.4993729562944894  0.6674999456264766  0.1660147005887068
  0.6666569711593763  0.8343506896117079  0.1649279726878508
 -0.0006609164007844  0.0001386350105231  0.3318834013429194
  0.1650858352117120  0.1656920096242144  0.3315714285715920
  0.3285440654042795  0.3327720073120771  0.3282962940990088
  0.4993373180019060  0.5001594951380346  0.3290837589408678
  0.6667319230794029  0.6708831583409225  0.3283642056320294
  0.8337968158128208  0.8343897369173937  0.3315681198938702
  0.1646804660203271 -0.0013409657567801  0.4990719123299415
  0.3261428738461034  0.1589559975769567  0.4992303502095892
  0.4807109792528469  0.3009544441675568  0.4803359232316861
  0.6986125829309278  0.5187349978488167  0.4803941950025105
  0.8405732210628335  0.6733419741994773  0.4992572500388699
  0.3320242658112468 -0.0007879526052242  0.6665739014779773
  0.4988537040359279  0.1632937747589724  0.6664821125241767
  0.6720807838908012  0.3274292906293642  0.6718656547316014
  0.8362410698623335  0.5006243868334043  0.6665296942837028
  0.4991072263967603  0.0000924273128166  0.8330980186532260
  0.6661979272095878  0.1655465011968267  0.8337367939297161
  0.8339690220891475  0.3332874234718666  0.8337683304168196
  0.9993804090745987  0.6673783541149819 -0.0008407998643659
  0.1657090545017425  0.8338061702453395 -0.0005085452064433
  0.0008693543011484  0.5002027496721394  0.1644679890906327
  0.1661892795939235  0.6671831935688345  0.1659487126839432
  0.3323610740733631  0.8333477444770746  0.1659835165088311
  0.0003180406908092  0.3327027058524033  0.3318005778900803
  0.1662267205445823  0.5001939534876109  0.3317593503148314
  0.3327754452243025  0.6667716981536833  0.3325473288862131
  0.4993606335488895  0.8333187074247480  0.3317829412278286
 -0.0005419258428552  0.1661768888163137  0.4989130853149282
  0.1647391378929208  0.3321193150757702  0.4988336017150668
  0.3293104702900375  0.5002000159530788  0.4991058742670165
  0.4993376728081447  0.6701941600116259  0.4991296296103327
  0.6674165050824170  0.8347953092603968  0.4988326794405881
 -0.0007213193657744  0.0001929352205873  0.6661828950250923
  0.1651256441126208  0.1663539946830601  0.6664449407636089
  0.3309340443112854  0.3333269523047452  0.6659837335090996
  0.4805509941353039  0.5189009344181915  0.6984937758287119
  0.6661725271454212  0.6685788315923142  0.6660080127048557
  0.8331166990179095  0.8343582884720874  0.6664170865734280
  0.1655889614278493  0.0002579548060651  0.8328561971062484
  0.3320285799380598  0.1666065233520873  0.8326970934662892
  0.4988556977308977  0.3328171535278515  0.8360267519209046
  0.6667076362482598  0.5006457998687972  0.8360035770561390
  0.8328961239708900  0.6674663966717763  0.8327058635491271
 -0.0003028208307879  0.8338068158681508  0.1654762689072368
  0.0012234827055560  0.6675808881935892  0.3316983607285087
  0.1661709471520059  0.8333699315567736  0.3321229928181198
  0.0037905958447073  0.5004512811195940  0.4988621687492312
  0.1662183371524968  0.6675297485139050  0.4991197656013048
  0.3319977092680242  0.8333520826301468  0.4991219031473589
  0.0001910869646514  0.3332176432736787  0.6660631045381200
  0.1646771112435526  0.5004499494213128  0.6671817184488978
  0.3285226682623908  0.6709788873740767  0.6665111711747723
  0.4990443724011952  0.8348284805497743  0.6671621130344061
 -0.0007551953069467  0.1665636127977075  0.8327042434253783
  0.1651138194050511  0.3328355798811021  0.8329292748966971
  0.3260524229998361  0.5000789169073282  0.8404245896284076
  0.4994119722115953  0.6734156395825395  0.8403994824706144
  0.6666031832528866  0.8343816730761713  0.8329294598968514
  0.0008445362710193  0.8348112325996452  0.4990477581503616
  0.0003038818891046  0.6674920499799022  0.6665886002800439
  0.1651035232024280  0.8343955153404788  0.6664427576975643
 -0.0005668335370681  0.5003666790404310  0.8331197059396697
  0.1650723800025340  0.6677203593784363  0.8335926322575204
  0.3317765482003037  0.8344345978592257  0.8335855501509195
 -0.0007918857560141  0.8339045226900688  0.8328501226625837
  0.5559092704157925  0.4436092478751237  0.5558453343907132
  0.8323949349636273  0.1670490925878584  0.1657914154333318
 -0.0008868596863759  0.3334479642246027  0.1656187745517725
 -0.0010363191401357  0.1668063700948701  0.3323796824548414
  0.4992536096789339  0.1655815718798643  0.1646008451463145
  0.6659504498961424  0.3335264588712988  0.1660921708620603
  0.8339027254929084  0.5002372829704663  0.1646257304739877
 -0.0002299915832665  0.6668305568641903  0.1657292718282087
  0.6650554668477224  0.1672301893349655  0.3332161985853070
  0.8322686181206712  0.3344322992554999  0.3332313297423713
  0.0019162880048140  0.5001218644155511  0.3314249951749740
  0.8312794336252138  0.1682194121617331  0.4990966951546886
  0.0003962166555708  0.3330174243930966  0.4989857119749863
 -0.0009677607226289  0.1670359445419695  0.6655967371393547
  0.1658771236634070  0.1665696769057455  0.1656867009569673
  0.3322561056163820  0.3330060345291249  0.1654703655879848
  0.4997899318891456  0.4997894544008167  0.1668109003450314
  0.6665393865774155  0.6672353627383160  0.1654979184243557
  0.8329208084383162  0.8335575072151111  0.1656857977019868
  0.9992445762969028  0.0001973326699797  0.1656578227743991
  0.3331602686134035  0.1659464667848252  0.3329091715865409
  0.4980216396184073  0.3307943955587360  0.3294241086816099
  0.6687172036896419  0.5014419811321676  0.3294895326921644
  0.8335594454720090  0.6663022845402193  0.3329538715895423
 -0.0002451674708317  0.8335265840549385  0.3324028126310971
  0.4983950458499652  0.1554850937824400  0.4981593451060411
  0.6592153424810981  0.3403250811657799  0.4993635570145587
  0.8440916323706458  0.5011159694283426  0.4982133368558478
  0.0019037382557174  0.6678552509973336  0.4991424091049741
  0.6650446178197165  0.1669569053434529  0.6648327262400793
  0.8325608037558273  0.3344373686483643  0.6648449624166578
  0.0003546199740576  0.5002699910360886  0.6662574148114474
  0.8320623382248843  0.1673881317343851  0.8318580575625691
 -0.0009730759226208  0.3336339707692399  0.8322110253644666
 -0.0009265404741963  0.1668888234342085 -0.0010978796746140
  0.1664432876995160  0.4999400591331700  0.1662095777640667
  0.3330792752918106  0.6664819732516436  0.1668452252559155
  0.4995624189742948  0.8330577342838390  0.1662424063491729
  0.6660152584200443  0.0003093735075632  0.1656296608305947
  0.1657034200550605  0.3329993263404710  0.3320318338875697
  0.3337339500238602  0.4992360444845273  0.3334803152911676
  0.5002968656721091  0.6657543318188033  0.3335083669433123
  0.6665168211723898  0.8337638323603576  0.3320420707195942
  0.8326641211518340  0.0004913664725149  0.3323886663218625
  0.1648829505324253  0.1655933414983517  0.4990222104842221
  0.3297881628766586  0.3308201132887064  0.4977733847577449
  0.6687246806567194  0.6696818060041538  0.4978137427535126
  0.8338835442910104  0.8346121272267490  0.4990108837856852
 -0.0009293888664477  0.0003929043564301  0.4990612473092996
  0.3334435403790463  0.1672300007893010  0.6648568940501514
  0.4995307899835509  0.3403401540894990  0.6591194974177772
  0.6592470430561689  0.4999527011921314  0.6591344236261745
  0.8322589498337580  0.6660546796700914  0.6648847178337914
 -0.0008765271501172  0.8336474071801295  0.6658083129498791
  0.4993143048206294  0.1682258495988716  0.8310578947377373
  0.6650788251524321  0.3344367908316427  0.8323145068244124
  0.8313088179859955  0.5001638996636025  0.8311021118854752
 -0.0010281497121118  0.6668623236018263  0.8324481499290675
  0.6658054792114060  0.1670213595368921 -0.0011941512525830
  0.8324131150422723  0.3336313974540139 -0.0011653827464584
 -0.0009265761468375  0.5001664076933979 -0.0011143486122336
  0.1661859265520037  0.8333177748273534  0.1659539082522099
  0.3326468764347594 -0.0002758098850182  0.1657523419131275
  0.1670837727624189  0.6664972501570844  0.3327989568465620
  0.3330540811203830  0.8324465973348814  0.3328212130974351
  0.4993738705950035  0.9976122598619356  0.3314282689731443
  0.1670782612981367  0.4997852153283492  0.4995052225368711
  0.3337186406819579  0.6658027368069113  0.5000325485446042
  0.4997456248848335  0.8324327144929915  0.4994828342661947
  0.6664860975287710 -0.0008742090890784  0.4989815469698399
  0.1663565315972840  0.3335428172691502  0.6657155762574569
  0.3296826578893330  0.5015224850247755  0.6685076247647114
  0.4979877164474242  0.6697998592131462  0.6685138051792642
  0.6659083741428010  0.8331391025291923  0.6657030713207430
  0.8323893283980025  0.0004212875579697  0.6655873331726072
  0.1659959628785748  0.1670359094121767  0.8322219804674533
  0.3334220943270237  0.3344381529476314  0.8320905262891717
  0.4983633684620737  0.5011610246456629  0.8438910870745016
  0.6650496539629942  0.6660711946287403  0.8320686101576334
  0.8323762655315271  0.8334537612915340  0.8321979059260221
 -0.0009180485057509  0.0003580159097531  0.8323395319333877
  0.3326012743931235  0.1667972967595306 -0.0012281041338509
  0.4992257271822791  0.3330246645250952  0.0001344251410658
  0.6665160126365968  0.5002571909077975  0.0001171899096079
  0.8326762272542967  0.6668638066263258 -0.0012429380320192
 -0.0007341303159921  0.8335855665886938 -0.0009434905279850
  0.1659363990793409 -0.0002665270040793  0.3324316893021910
  0.1664258700432843  0.8330914411678136  0.4993288439324796
  0.3316592747179614 -0.0023745966576712  0.4991545600767620
  0.1656977001925710  0.6672712790906603  0.6662816160767333
  0.3322439764322301  0.8337964560769606  0.6662677116521902
  0.4992046919669419 -0.0008627316319957  0.6662378557402723
  0.1648251242502183  0.5002293114172872  0.8336987069630423
  0.3331561492477999  0.6663610650731541  0.8333534640119977
  0.4992094175912054  0.8346599163020590  0.8336660187569466
  0.6657842342942040  0.0004340571277099  0.8322004357524503
  0.1657995517544492  0.3334342112181333 -0.0010521713993395
  0.3316326753308033  0.5001175629529087  0.0017059580142469
  0.4993893327055716  0.6678660218929313  0.0017097916906326
  0.6660074364905583  0.8336357249992445  0.9989470846754330
  0.8325379930455935  0.0003387461483038 -0.0011102369930596
  0.1658198916111079  0.0003335842054864  0.6658151752180156
  0.1658834314510394  0.8335750203760776  0.8326990861757302
  0.3326094275097330  0.0005034873685734  0.8324629055041768
  0.1659527278735959  0.6668319680800662 -0.0004503721974002
  0.3326609259464229  0.8335384773641826 -0.0004383098259273
  0.4992771936787976  0.0003854043661254 -0.0011281486040524
  0.1658732436988029  0.0001933296827983 -0.0009404694388144
 
  0.00000000E+00  0.00000000E+00  0.00000000E+00
  0.00000000E+00  0.00000000E+00  0.00000000E+00
  0.00000000E+00  0.00000000E+00  0.00000000E+00
  0.00000000E+00  0.00000000E+00  0.00000000E+00
  0.00000000E+00  0.00000000E+00  0.00000000E+00
  0.00000000E+00  0.00000000E+00  0.00000000E+00
  0.00000000E+00  0.00000000E+00  0.00000000E+00
  0.00000000E+00  0.00000000E+00  0.00000000E+00
  0.00000000E+00  0.00000000E+00  0.00000000E+00
  0.00000000E+00  0.00000000E+00  0.00000000E+00
  0.00000000E+00  0.00000000E+00  0.00000000E+00
  0.00000000E+00  0.00000000E+00  0.00000000E+00
  0.00000000E+00  0.00000000E+00  0.00000000E+00
  0.00000000E+00  0.00000000E+00  0.00000000E+00
  0.00000000E+00  0.00000000E+00  0.00000000E+00
  0.00000000E+00  0.00000000E+00  0.00000000E+00
  0.00000000E+00  0.00000000E+00  0.00000000E+00
  0.00000000E+00  0.00000000E+00  0.00000000E+00
  0.00000000E+00  0.00000000E+00  0.00000000E+00
  0.00000000E+00  0.00000000E+00  0.00000000E+00
  0.00000000E+00  0.00000000E+00  0.00000000E+00
  0.00000000E+00  0.00000000E+00  0.00000000E+00
  0.00000000E+00  0.00000000E+00  0.00000000E+00
  0.00000000E+00  0.00000000E+00  0.00000000E+00
  0.00000000E+00  0.00000000E+00  0.00000000E+00
  0.00000000E+00  0.00000000E+00  0.00000000E+00
  0.00000000E+00  0.00000000E+00  0.00000000E+00
  0.00000000E+00  0.00000000E+00  0.00000000E+00
  0.00000000E+00  0.00000000E+00  0.00000000E+00
  0.00000000E+00  0.00000000E+00  0.00000000E+00
  0.00000000E+00  0.00000000E+00  0.00000000E+00
  0.00000000E+00  0.00000000E+00  0.00000000E+00
  0.00000000E+00  0.00000000E+00  0.00000000E+00
  0.00000000E+00  0.00000000E+00  0.00000000E+00
  0.00000000E+00  0.00000000E+00  0.00000000E+00
  0.00000000E+00  0.00000000E+00  0.00000000E+00
  0.00000000E+00  0.00000000E+00  0.00000000E+00
  0.00000000E+00  0.00000000E+00  0.00000000E+00
  0.00000000E+00  0.00000000E+00  0.00000000E+00
  0.00000000E+00  0.00000000E+00  0.00000000E+00
  0.00000000E+00  0.00000000E+00  0.00000000E+00
  0.00000000E+00  0.00000000E+00  0.00000000E+00
  0.00000000E+00  0.00000000E+00  0.00000000E+00
  0.00000000E+00  0.00000000E+00  0.00000000E+00
  0.00000000E+00  0.00000000E+00  0.00000000E+00
  0.00000000E+00  0.00000000E+00  0.00000000E+00
  0.00000000E+00  0.00000000E+00  0.00000000E+00
  0.00000000E+00  0.00000000E+00  0.00000000E+00
  0.00000000E+00  0.00000000E+00  0.00000000E+00
  0.00000000E+00  0.00000000E+00  0.00000000E+00
  0.00000000E+00  0.00000000E+00  0.00000000E+00
  0.00000000E+00  0.00000000E+00  0.00000000E+00
  0.00000000E+00  0.00000000E+00  0.00000000E+00
  0.00000000E+00  0.00000000E+00  0.00000000E+00
  0.00000000E+00  0.00000000E+00  0.00000000E+00
  0.00000000E+00  0.00000000E+00  0.00000000E+00
  0.00000000E+00  0.00000000E+00  0.00000000E+00
  0.00000000E+00  0.00000000E+00  0.00000000E+00
  0.00000000E+00  0.00000000E+00  0.00000000E+00
  0.00000000E+00  0.00000000E+00  0.00000000E+00
  0.00000000E+00  0.00000000E+00  0.00000000E+00
  0.00000000E+00  0.00000000E+00  0.00000000E+00
  0.00000000E+00  0.00000000E+00  0.00000000E+00
  0.00000000E+00  0.00000000E+00  0.00000000E+00
  0.00000000E+00  0.00000000E+00  0.00000000E+00
  0.00000000E+00  0.00000000E+00  0.00000000E+00
  0.00000000E+00  0.00000000E+00  0.00000000E+00
  0.00000000E+00  0.00000000E+00  0.00000000E+00
  0.00000000E+00  0.00000000E+00  0.00000000E+00
  0.00000000E+00  0.00000000E+00  0.00000000E+00
  0.00000000E+00  0.00000000E+00  0.00000000E+00
  0.00000000E+00  0.00000000E+00  0.00000000E+00
  0.00000000E+00  0.00000000E+00  0.00000000E+00
  0.00000000E+00  0.00000000E+00  0.00000000E+00
  0.00000000E+00  0.00000000E+00  0.00000000E+00
  0.00000000E+00  0.00000000E+00  0.00000000E+00
  0.00000000E+00  0.00000000E+00  0.00000000E+00
  0.00000000E+00  0.00000000E+00  0.00000000E+00
  0.00000000E+00  0.00000000E+00  0.00000000E+00
  0.00000000E+00  0.00000000E+00  0.00000000E+00
  0.00000000E+00  0.00000000E+00  0.00000000E+00
  0.00000000E+00  0.00000000E+00  0.00000000E+00
  0.00000000E+00  0.00000000E+00  0.00000000E+00
  0.00000000E+00  0.00000000E+00  0.00000000E+00
  0.00000000E+00  0.00000000E+00  0.00000000E+00
  0.00000000E+00  0.00000000E+00  0.00000000E+00
  0.00000000E+00  0.00000000E+00  0.00000000E+00
  0.00000000E+00  0.00000000E+00  0.00000000E+00
  0.00000000E+00  0.00000000E+00  0.00000000E+00
  0.00000000E+00  0.00000000E+00  0.00000000E+00
  0.00000000E+00  0.00000000E+00  0.00000000E+00
  0.00000000E+00  0.00000000E+00  0.00000000E+00
  0.00000000E+00  0.00000000E+00  0.00000000E+00
  0.00000000E+00  0.00000000E+00  0.00000000E+00
  0.00000000E+00  0.00000000E+00  0.00000000E+00
  0.00000000E+00  0.00000000E+00  0.00000000E+00
  0.00000000E+00  0.00000000E+00  0.00000000E+00
  0.00000000E+00  0.00000000E+00  0.00000000E+00
  0.00000000E+00  0.00000000E+00  0.00000000E+00
  0.00000000E+00  0.00000000E+00  0.00000000E+00
  0.00000000E+00  0.00000000E+00  0.00000000E+00
  0.00000000E+00  0.00000000E+00  0.00000000E+00
  0.00000000E+00  0.00000000E+00  0.00000000E+00
  0.00000000E+00  0.00000000E+00  0.00000000E+00
  0.00000000E+00  0.00000000E+00  0.00000000E+00
  0.00000000E+00  0.00000000E+00  0.00000000E+00
  0.00000000E+00  0.00000000E+00  0.00000000E+00
  0.00000000E+00  0.00000000E+00  0.00000000E+00
  0.00000000E+00  0.00000000E+00  0.00000000E+00
  0.00000000E+00  0.00000000E+00  0.00000000E+00
  0.00000000E+00  0.00000000E+00  0.00000000E+00
  0.00000000E+00  0.00000000E+00  0.00000000E+00
  0.00000000E+00  0.00000000E+00  0.00000000E+00
  0.00000000E+00  0.00000000E+00  0.00000000E+00
  0.00000000E+00  0.00000000E+00  0.00000000E+00
  0.00000000E+00  0.00000000E+00  0.00000000E+00
  0.00000000E+00  0.00000000E+00  0.00000000E+00
  0.00000000E+00  0.00000000E+00  0.00000000E+00
  0.00000000E+00  0.00000000E+00  0.00000000E+00
  0.00000000E+00  0.00000000E+00  0.00000000E+00
  0.00000000E+00  0.00000000E+00  0.00000000E+00
  0.00000000E+00  0.00000000E+00  0.00000000E+00
  0.00000000E+00  0.00000000E+00  0.00000000E+00
  0.00000000E+00  0.00000000E+00  0.00000000E+00
  0.00000000E+00  0.00000000E+00  0.00000000E+00
  0.00000000E+00  0.00000000E+00  0.00000000E+00
  0.00000000E+00  0.00000000E+00  0.00000000E+00
  0.00000000E+00  0.00000000E+00  0.00000000E+00
  0.00000000E+00  0.00000000E+00  0.00000000E+00
  0.00000000E+00  0.00000000E+00  0.00000000E+00
  0.00000000E+00  0.00000000E+00  0.00000000E+00
  0.00000000E+00  0.00000000E+00  0.00000000E+00
  0.00000000E+00  0.00000000E+00  0.00000000E+00
  0.00000000E+00  0.00000000E+00  0.00000000E+00
  0.00000000E+00  0.00000000E+00  0.00000000E+00
  0.00000000E+00  0.00000000E+00  0.00000000E+00
  0.00000000E+00  0.00000000E+00  0.00000000E+00
  0.00000000E+00  0.00000000E+00  0.00000000E+00
  0.00000000E+00  0.00000000E+00  0.00000000E+00
  0.00000000E+00  0.00000000E+00  0.00000000E+00
  0.00000000E+00  0.00000000E+00  0.00000000E+00
  0.00000000E+00  0.00000000E+00  0.00000000E+00
  0.00000000E+00  0.00000000E+00  0.00000000E+00
  0.00000000E+00  0.00000000E+00  0.00000000E+00
  0.00000000E+00  0.00000000E+00  0.00000000E+00
  0.00000000E+00  0.00000000E+00  0.00000000E+00
  0.00000000E+00  0.00000000E+00  0.00000000E+00
  0.00000000E+00  0.00000000E+00  0.00000000E+00
  0.00000000E+00  0.00000000E+00  0.00000000E+00
  0.00000000E+00  0.00000000E+00  0.00000000E+00
  0.00000000E+00  0.00000000E+00  0.00000000E+00
  0.00000000E+00  0.00000000E+00  0.00000000E+00
  0.00000000E+00  0.00000000E+00  0.00000000E+00
  0.00000000E+00  0.00000000E+00  0.00000000E+00
  0.00000000E+00  0.00000000E+00  0.00000000E+00
  0.00000000E+00  0.00000000E+00  0.00000000E+00
  0.00000000E+00  0.00000000E+00  0.00000000E+00
  0.00000000E+00  0.00000000E+00  0.00000000E+00
  0.00000000E+00  0.00000000E+00  0.00000000E+00
  0.00000000E+00  0.00000000E+00  0.00000000E+00
  0.00000000E+00  0.00000000E+00  0.00000000E+00
  0.00000000E+00  0.00000000E+00  0.00000000E+00
  0.00000000E+00  0.00000000E+00  0.00000000E+00
  0.00000000E+00  0.00000000E+00  0.00000000E+00
  0.00000000E+00  0.00000000E+00  0.00000000E+00
  0.00000000E+00  0.00000000E+00  0.00000000E+00
  0.00000000E+00  0.00000000E+00  0.00000000E+00
  0.00000000E+00  0.00000000E+00  0.00000000E+00
  0.00000000E+00  0.00000000E+00  0.00000000E+00
  0.00000000E+00  0.00000000E+00  0.00000000E+00
  0.00000000E+00  0.00000000E+00  0.00000000E+00
  0.00000000E+00  0.00000000E+00  0.00000000E+00
  0.00000000E+00  0.00000000E+00  0.00000000E+00
  0.00000000E+00  0.00000000E+00  0.00000000E+00
  0.00000000E+00  0.00000000E+00  0.00000000E+00
  0.00000000E+00  0.00000000E+00  0.00000000E+00
  0.00000000E+00  0.00000000E+00  0.00000000E+00
  0.00000000E+00  0.00000000E+00  0.00000000E+00
  0.00000000E+00  0.00000000E+00  0.00000000E+00
  0.00000000E+00  0.00000000E+00  0.00000000E+00
  0.00000000E+00  0.00000000E+00  0.00000000E+00
  0.00000000E+00  0.00000000E+00  0.00000000E+00
  0.00000000E+00  0.00000000E+00  0.00000000E+00
  0.00000000E+00  0.00000000E+00  0.00000000E+00
  0.00000000E+00  0.00000000E+00  0.00000000E+00
  0.00000000E+00  0.00000000E+00  0.00000000E+00
  0.00000000E+00  0.00000000E+00  0.00000000E+00
  0.00000000E+00  0.00000000E+00  0.00000000E+00
  0.00000000E+00  0.00000000E+00  0.00000000E+00
  0.00000000E+00  0.00000000E+00  0.00000000E+00
  0.00000000E+00  0.00000000E+00  0.00000000E+00
  0.00000000E+00  0.00000000E+00  0.00000000E+00
  0.00000000E+00  0.00000000E+00  0.00000000E+00
  0.00000000E+00  0.00000000E+00  0.00000000E+00
  0.00000000E+00  0.00000000E+00  0.00000000E+00
  0.00000000E+00  0.00000000E+00  0.00000000E+00
  0.00000000E+00  0.00000000E+00  0.00000000E+00
  0.00000000E+00  0.00000000E+00  0.00000000E+00
  0.00000000E+00  0.00000000E+00  0.00000000E+00
  0.00000000E+00  0.00000000E+00  0.00000000E+00
  0.00000000E+00  0.00000000E+00  0.00000000E+00
  0.00000000E+00  0.00000000E+00  0.00000000E+00
  0.00000000E+00  0.00000000E+00  0.00000000E+00
  0.00000000E+00  0.00000000E+00  0.00000000E+00
  0.00000000E+00  0.00000000E+00  0.00000000E+00
  0.00000000E+00  0.00000000E+00  0.00000000E+00
  0.00000000E+00  0.00000000E+00  0.00000000E+00
  0.00000000E+00  0.00000000E+00  0.00000000E+00
  0.00000000E+00  0.00000000E+00  0.00000000E+00
  0.00000000E+00  0.00000000E+00  0.00000000E+00
  0.00000000E+00  0.00000000E+00  0.00000000E+00
  0.00000000E+00  0.00000000E+00  0.00000000E+00
  0.00000000E+00  0.00000000E+00  0.00000000E+00
  0.00000000E+00  0.00000000E+00  0.00000000E+00
  0.00000000E+00  0.00000000E+00  0.00000000E+00
  0.00000000E+00  0.00000000E+00  0.00000000E+00
