30.0% N(Distort)=4 ~[0.5,0.5,0.5]
1.0
  12.5998379999999983    0.0000000000000004    0.0000000000000004
   0.0000000000000004   12.5998379999999983   -0.0000000000000004
  -0.0000000000000004   -0.0000000000000004   12.5998379999999983
Mg O
109 107
direct
   0.6719359826099596    0.0164400566803896   -0.0025562813959436 Mg
   0.8333333333333333    0.1666666666666667    1.0000000000000000 Mg
   0.8356993213461827    1.0223522002184962    0.1641323011046227 Mg
   0.3224763702131981    0.0044599364366762   -0.0124259056236310 Mg
   0.4851367154230440    0.1727474329871763    0.0227075764064646 Mg
   0.6388666746502948    0.3354799854733442   -0.0235047665460147 Mg
   0.8493054184143907    0.5070864921387988    1.0156185315519550 Mg
   0.4883955996942713    0.0070621578576809    0.1755893241350447 Mg
   0.6562404132720437    0.1602697860082556    0.1469752626387114 Mg
   0.8558700675533080    0.3289489778683287    0.1443390316083255 Mg
   0.6928865113157349    0.0170532082026663    0.3192928198122081 Mg
   0.8281244134017258    0.1869186612949576    0.3619946370137663 Mg
   0.8017216140682740    1.0278778624536160    0.4694840588432074 Mg
  -0.0294280797210505    0.0075978931896780    0.0060087239430702 Mg
   0.1889892717057903    0.1510189735301568    0.0270757039734539 Mg
   0.3363271997956429    0.3383859351690671    0.0092066456856924 Mg
   0.4865082087766616    0.5187058663358589    0.0013777530894424 Mg
   0.6637909376602388    0.6690903824589514   -0.0059674165162801 Mg
   0.8315884375839953    0.8637451307505882    0.0043300453940999 Mg
   0.1789159745153582   -0.0186967864456295    0.1482212640325314 Mg
   0.3120129607894457    0.1762120428465724    0.1674486229667467 Mg
   0.5022045572181026    0.3469694847030086    0.1822473221692382 Mg
   0.6751530197325635    0.4867940795444217    0.1805226046592464 Mg
   0.8111035415962229    0.6589665732732378    0.1574115039622818 Mg
   0.3185929257079859   -0.0141364313709997    0.3031321841618090 Mg
   0.4890976011935320    0.1926233385400799    0.3512106699779226 Mg
   0.6632667474110459    0.3436406995678401    0.3513220827067980 Mg
   0.8407044061245880    0.5148892485098547    0.3027538845922462 Mg
   0.4973851135602552   -0.0115625529507124    0.5095853880571897 Mg
   0.6608529775386298    0.1450320053467432    0.4778781216213971 Mg
   0.8539717907190885    0.3125420358346443    0.5138870848698449 Mg
   0.6521136944737557    0.0010348601142808    0.6772339126936920 Mg
   0.8080088048825338    0.1733950712113548    0.6471489917439625 Mg
   0.8461467734990463   -0.0126454865459550    0.8400936941186301 Mg
   0.0171559992319744    0.3517904595174756    0.9794626093933465 Mg
   0.1599800936360308    0.5206894307782500   -0.0210355521836222 Mg
   0.3381536400635462    0.6926962812556617    0.9760683256863580 Mg
   0.4920589681986380    0.8107915547718177    0.0165814674482793 Mg
  -0.0062258778788565    0.1491690791713578    0.1325818532544781 Mg
   0.1597101493546612    0.3344042570373666    0.1701797003543124 Mg
   0.3211007157736483    0.4945958835560280    0.1486975561574428 Mg
   0.4847622882135796    0.6836299448861789    0.1498733451687425 Mg
   0.6498030150258967    0.8176691003541597    0.1362347415288981 Mg
   1.0144489880782976    0.9909548866382435    0.3323528219260781 Mg
   0.1726280975973122    0.1847019452862206    0.3230603868356015 Mg
   0.3175851419049846    0.3118262841305485    0.3383130852380233 Mg
   0.4947835586282679    0.5063525044003142    0.3542530911785327 Mg
   0.6756820826393473    0.6810148857935714    0.3211335351320211 Mg
   0.8333294359259651    0.8578021425309007    0.3323627128391338 Mg
   0.1536413864377791   -0.0054846494324468    0.4782826980667075 Mg
   0.3420705696662494    0.1739541730106836    0.4926942882613312 Mg
   0.4942534716575315    0.3164264071561010    0.5038887756003777 Mg
   0.6589553727455696    0.5142981029477193    0.5058400404722859 Mg
   0.8159382453992556    0.6527473113422474    0.4800645547810086 Mg
   0.3161003385445464    0.9835630789283671    0.6624043599710695 Mg
   0.5209517241591519    0.1676321482511639    0.6726192375702383 Mg
   0.6789061883385333    0.3276422806114168    0.6898923678650117 Mg
   0.8306994806280938    0.4893633971972721    0.6705285686497026 Mg
   0.4832083130071574    0.0068180972037927    0.8226900523848490 Mg
   0.6852319164861217    0.1656590343237715    0.8556888029213932 Mg
   0.8415393003637476    0.3411700541929317    0.8415254717217707 Mg
  -0.0068808667082832    0.6605853998757388    1.0063515377859478 Mg
   0.1633177866888050    0.8356728954896878   -0.0022381711259858 Mg
   0.0033615250035080    0.5381712530099612    0.1675905593193288 Mg
   0.1535623522063055    0.6594393360736353    0.1560580337775888 Mg
   0.3293618282304731    0.8335593670008875    0.1843747067589898 Mg
  -0.0093700205563892    0.3351092446461542    0.3206181179184410 Mg
   0.1692612507751196    0.4904717020782440    0.3294516425769073 Mg
   0.3201323575341344    0.6530805340298166    0.3547423364658200 Mg
   0.4954426457024396    0.8131868785357451    0.3343335402739169 Mg
  -0.0166142702709275    0.1534439667995282    0.4844799286911647 Mg
   0.1811670961590999    0.3319216301574651    0.5118102101967588 Mg
   0.3464190426731201    0.5118590456254432    0.4824810986813148 Mg
   0.4951556917461578    0.6336157981519888    0.4916472262078399 Mg
   0.6352543833724364    0.8271319573754511    0.4700239053193304 Mg
   0.9887053127463402    1.0097072624937551    0.6598411597277478 Mg
   0.1626388829864320    0.1636008904446736    0.6647362111845081 Mg
   0.3223822472047677    0.3164595259773018    0.6747803156815998 Mg
   0.4958254678339605    0.4941153218624680    0.6855373923563756 Mg
   0.6782901098264927    0.6497967961357132    0.6616468041957881 Mg
   0.8259440496696214    0.8232704711766419    0.6658791736230837 Mg
   0.1688643700266764   -0.0222388419241600    0.8535942745127459 Mg
   0.3148507954502062    0.1426165529505698    0.8240324059425048 Mg
   0.5076552911376878    0.3386417685490716    0.8451620651741496 Mg
   0.6814539901273222    0.4889994762393957    0.8501447748838146 Mg
   0.8213430727759439    0.6821596131247639    0.8513919623173937 Mg
   0.9890575655737044    0.8099442295607066    0.1687245462425975 Mg
  -0.0119475732362788    0.6465108800869334    0.3413789475838294 Mg
   0.1694405158666363    0.8525426365222494    0.3266530429113903 Mg
  -0.0065363302961052    0.4814708052610231    0.4963754623461928 Mg
   0.1579194241045153    0.6765281295384186    0.5064113517029344 Mg
   0.3431335590403511    0.8254736235196686    0.4923546878707131 Mg
   1.0275629996102924    0.3278794723749286    0.6429590784320153 Mg
   0.1763548117287370    0.5052197185330710    0.6859386284724144 Mg
   0.3142713105092554    0.6584449805675101    0.6628023981199496 Mg
   0.5003511299995768    0.8415612749771243    0.6747888240050698 Mg
   0.0120991903197232    0.1645231180193404    0.8434952796285735 Mg
   0.1538223213984358    0.3455026506376782    0.8387389008629750 Mg
   0.3190763726055165    0.4975831511016778    0.8413165139680459 Mg
   0.4802140798889880    0.6707494688458010    0.8244476521554915 Mg
   0.6935593787579881    0.8253406420716075    0.8372801260500152 Mg
   1.0183066878613445    0.8405263563081882    0.4859694148679773 Mg
   0.0284587551814710    0.6565860013220584    0.6815789333521705 Mg
   0.1786895580884632    0.8394323250228031    0.6528532001117641 Mg
   0.0176874556895424    0.4909002188241484    0.8593232304108614 Mg
   0.1759599914375669    0.6671855290869230    0.8418309225251359 Mg
   0.3476615459534746    0.8587714091204118    0.8209298552797640 Mg
  -0.0049456187542569    0.8338344757051886    0.8338595969680100 Mg
   0.5079870072260593    0.4950343901006730    0.4860554777388094 Mg
   0.8333333333333333    0.1666666666666667    0.2166694524167692 O
   0.0129759874549532    0.3493118200007067    0.1698214476378372 O
  -0.0016057393432910    0.1611885349046499    0.3242972149264693 O
   0.5048663278057101    0.1865394185799248    0.1717194606812486 O
   0.6284802640047492    0.3594046337725614    0.1484072660887627 O
   0.8271614785066576    0.5166583342203920    0.1570156067304206 O
  -0.0031334834969597    0.6822559884194909    0.1384674742416991 O
   0.6907445955721636    0.1482899220979715    0.3123566531338471 O
   0.8434721011288229    0.3276937319314611    0.3470793252031814 O
  -0.0103265267262638    0.5100120508288138    0.3187513690485156 O
   0.8377612273602858    0.1559535196582454    0.5030531095211438 O
  -0.0019825541462274    0.2878459907848972    0.5185836669973816 O
  -0.0059790823532082    0.1907986338378080    0.6780689719757061 O
   0.1775263541093169    0.1491394661505667    0.1657886476673212 O
   0.3166752240577021    0.3254499170196248    0.1472552998560023 O
   0.4759782877583816    0.4985424931322071    0.1624454809729599 O
   0.6538508246990395    0.6584157135229513    0.1803413446116209 O
   0.8141154819639739    0.8013582456326908    0.1757646426772070 O
  -0.0089299158317948   -0.0251768810719673    0.1554569058611071 O
   0.3386004110966044    0.1765928155605509    0.3022167079130098 O
   0.4948568128932305    0.3359024617287762    0.3234974084573880 O
   0.6791905530617813    0.4916867628484753    0.3370182797676828 O
   0.8365651437146200    0.6789205433925659    0.3372110881341547 O
   0.0029645602151755    0.8418961407448206    0.3377403053649747 O
   0.5173919777699045    0.1889244572923743    0.4994132694397346 O
   0.6705697523596156    0.3429042352860110    0.5060307451974887 O
   0.8149992201003704    0.4949871713609719    0.5052963514160773 O
   0.0192440378040423    0.6690552306438471    0.5190265329539666 O
   0.6815969052534547    0.1444330890148852    0.6890241360700724 O
   0.8124203212835713    0.3340860815280817    0.6611902770073876 O
  -0.0000718310601425    0.4974056621372945    0.6712022565565469 O
   0.8333333333333333    0.1666666666666667    0.7833305475832310 O
   0.0015156879805814    0.3210601316790325    0.8363547624045509 O
   0.0500027857501025    0.1666666666666667   -0.0000000000000000 O
   0.1714133771721278    0.5104548638310112    0.1565623595462839 O
   0.3280973205071457    0.6550198823413693    0.1997717352993726 O
   0.4657224101392036    0.8434304571877953    0.1429797285055529 O
   0.6839179393712632    0.0045533198337806    0.1749563853882076 O
   0.1855977294559064    0.3334522598137617    0.3404044248299011 O
   0.3138438827995457    0.5065577598734908    0.3385774200306390 O
   0.4881059337374274    0.6699753278358150    0.3399335706513458 O
   0.6753842341404488    0.8369355472041530    0.3417697745424664 O
   0.8491423399443375    0.0079634925022225    0.3427049101448317 O
   0.1640640071439974    0.1709869504271543    0.4983442110786177 O
   0.3321468713477997    0.3140072781114421    0.4973888255903089 O
   0.6581564897577699    0.6786921865340007    0.5030440202853086 O
   0.8445904660915232    0.8514938609740661    0.5131618310376237 O
   0.0063798804425199    0.0058602132247611    0.5079636060693683 O
   0.3332544328693899    0.1585544506666903    0.6526812807517366 O
   0.5126878295790878    0.3443419309601938    0.6804255667080974 O
   0.6621604923066085    0.4964746590477968    0.6726356001884036 O
   0.8345517918896661    0.6284940845304494    0.6654508197999575 O
  -0.0001513757592394    0.8059564743240928    0.6495969865155072 O
   0.4954845278240314    0.1684975909181972    0.8403041017555505 O
   0.6606176054130609    0.3523226147503058    0.8183833827512486 O
   0.8381793792001710    0.5079606052799643    0.8478926338073569 O
  -0.0065447804418273    0.6490029600066193    0.8191588111287105 O
   0.6166638809165641    0.1666666666666667    0.0000000000000000 O
   0.8231688690537660    0.3379008237440032   -0.0035575181919879 O
   0.0017430986050921    0.5161372012389305    0.0117907363820598 O
   0.1441899462777749    0.8289257257563620    0.1609685272859641 O
   0.3492517805717510   -0.0054045846984849    0.1429455155372765 O
   0.1627736378837213    0.6601713378454097    0.3328100835025641 O
   0.3403993583400001    0.8239496316978603    0.3214694078506842 O
   0.5166055418727238   -0.0200593220961548    0.3395256092867102 O
   0.1883634576259292    0.4921652696646976    0.5067314294278628 O
   0.3114918939212576    0.6972423987846176    0.4981250066592428 O
   0.5021411693814757    0.8354622643379453    0.5198469676463313 O
   0.6718088174249338   -0.0007119654844014    0.5038789358479623 O
   0.1727433101851245    0.3164224785058127    0.6733409452703729 O
   0.3358980386360064    0.4886200375549133    0.6853084794720341 O
   0.4966947526474901    0.6443053487477509    0.6579186068080692 O
   0.6589565965219547    0.8558930124371288    0.6530954927376710 O
   0.8449504921125516   -0.0107190624281380    0.7129748753045611 O
   0.1756854010054547    0.1817870073938359    0.8425387880623461 O
   0.3305370878939486    0.3309651228387643    0.8492995659877043 O
   0.4850094521846890    0.4914770685120393    0.8289059280435369 O
   0.6899791205474912    0.6667867746988201    0.8155211793347656 O
   0.8529154459991697    0.8240664416502007    0.8409418174643420 O
  -0.0107083908125454    0.0371048912419505    0.8320496130397095 O
   0.3391509768828013    0.1445242970581594    0.0083657897811253 O
   0.5026385747923303    0.3543014559013169   -0.0153929387552948 O
   0.6443411243348512    0.4861683953538128   -0.0097960091518821 O
   0.8433678790605320    0.6769539845811419   -0.0122037897577353 O
  -0.0149511744093325    0.8183128091748902    0.0151544711855841 O
   0.1734082408571602    0.0047504464244103    0.3115075973318260 O
   0.1931483908858597    0.8107398895132294    0.4948394016462379 O
   0.3246411380893043    0.0076959426768944    0.5007357914790028 O
   0.1798160847424149    0.6893145022990927    0.6537344716068288 O
   0.3386868106582683    0.8308665656237084    0.6700775855057055 O
   0.5182165011919171    0.0136039929151830    0.6879784778127217 O
   0.1700910086307989    0.4841019912939846    0.8212480729790740 O
   0.3168516565589163    0.6830722366551460    0.8300228253260160 O
   0.5369112227682186    0.8334090396483825    0.8083848793920245 O
   0.6747762962166356    0.0020475909213646    0.8267815954021939 O
   0.1744578427730247    0.3340042734030239    0.0082010710985725 O
   0.3254847126965620    0.5060005089153899    0.0014845467117730 O
   0.5052095064105437    0.6599303881080771    0.0049908898828114 O
   0.6490017152718385    0.8383020834896491   -0.0289229005232619 O
   0.8306408016536994   -0.0029781172004039   -0.0175783329415442 O
   0.1847064967846083   -0.0026888998218330    0.6726349857931558 O
   0.1770586031541706    0.8526065202442960    0.8217675851988977 O
   0.3326426114954387   -0.0076736799991302    0.8292659753739309 O
   0.1571827071018264    0.6830894602624320    0.0095470440808319 O
   0.3413472294617515    0.8048907614652547    0.0175739102520403 O
   0.5266586823313026   -0.0043934640115622    0.0091911859369234 O
   0.1675617916146555    0.0147400403773670    0.0080036990354321 O
