Se234 F1
1.0
  19.5490800000000000    3.7622220000000000   -4.9635699999999998
   8.6884800000000002   15.0488879999999998    9.9271399999999996
   2.1721200000000001   -3.7622220000000000   19.8542799999999993
Se F
234 1
direct
   0.6663420440000000    0.1111652150000000    0.1110029840000000 Se
   0.0544195140000000    0.1819757250000000    0.0059503840000000 Se
   0.2023151840000000    0.0530133850000000    0.1907387340000000 Se
   0.1278804240000000    0.0342423550000000    0.2648488240000000 Se
   0.0031373640000000    0.2460784850000000    0.2110784540000000 Se
   0.2851887140000000    0.1435139450000000    0.0828735640000000 Se
   0.1535214140000000    0.2521908350000000    0.1622848340000000 Se
   0.2279561740000000    0.2709618650000000    0.0881747340000000 Se
   0.2339067040000000    0.2076164650000000    0.2880016140000000 Se
   0.1510331740000000    0.1171158950000000    0.3958667840000000 Se
   0.4355728440000000    0.1496269950000000    0.0340798140000000 Se
   0.0287787240000000    0.4640264350000000    0.1085146340000000 Se
   0.1766741640000000    0.3350643850000000    0.2933027940000000 Se
   0.0765984040000000    0.0983448650000000    0.4699768840000000 Se
   0.1022393940000000    0.3162933550000000    0.3674128940000000 Se
   0.3842910640000000    0.2137292250000000    0.2392080540000000 Se
   0.1791624740000000    0.4701399750000000    0.0597205340000000 Se
   0.4330847640000000    0.0145511150000000    0.2676622540000000 Se
   0.2545228640000000    0.4250716750000000    0.1828982040000000 Se
   0.4587258340000000    0.2325002550000000    0.1650979540000000 Se
   0.5159583740000000    0.1050523350000000    0.1597967840000000 Se
   0.1826246840000000    0.2717189750000000    0.4931296740000000 Se
   0.1278804640000000    0.5342424850000000    0.2648485840000000 Se
   0.4099320540000000    0.4316777050000000    0.1366440640000000 Se
   0.3818027540000000    0.0786536350000000    0.4727903140000000 Se
   0.4664081540000000    0.1717844050000000    0.3655270440000000 Se
   0.2002902440000000    0.5534098550000000    0.1865771940000000 Se
   0.1569836940000000    0.0537704950000000    0.5956936640000000 Se
   0.3334721540000000    0.2786613450000000    0.4447082840000000 Se
   0.4045415540000000    0.3015599850000000    0.3677471740000000 Se
   0.3073679840000000    0.0598826050000000    0.5469004140000000 Se
   0.5415993640000000    0.3230008150000000    0.0572327840000000 Se
   0.0997510040000000    0.1812186050000000    0.6009954540000000 Se
   0.1253919940000000    0.3991670850000000    0.4984314540000000 Se
   0.2037775340000000    0.4915957050000000    0.3878289340000000 Se
   0.4843668240000000    0.4504487350000000    0.0625339640000000 Se
   0.4847863140000000    0.3893699550000000    0.2609280340000000 Se
   0.0544195640000000    0.6819758550000000    0.0059501440000000 Se
   0.0509572340000000    0.3803960550000000    0.5725415540000000 Se
   0.3454023740000000    0.4987870150000000    0.3376944040000000 Se
   0.0253162440000000    0.1624475750000000    0.6751055440000000 Se
   0.2873089640000000    0.6415510050000000    0.0819637740000000 Se
   0.6150600340000000    0.1752677350000000    0.3161310440000000 Se
   0.4245144440000000    0.5153839150000000    0.2671403440000000 Se
   0.4146694140000000    0.2355241750000000    0.5692912140000000 Se
   0.1456286640000000    0.6166806250000000    0.3962561340000000 Se
   0.7407765740000000    0.1299365250000000    0.0368927040000000 Se
   0.6894947940000000    0.1940387650000000    0.2420209440000000 Se
   0.0765982940000000    0.5983451950000001    0.4699772540000000 Se
   0.3572222640000000    0.3641806150000000    0.5727683340000000 Se
   0.3305205840000000    0.1427563450000000    0.6779189740000000 Se
   0.6965237540000000    0.3252403950000000    0.0126228240000000 Se
   0.0031373340000000    0.7460779650000000    0.2110785240000000 Se
   0.3877532740000000    0.0153082350000000    0.6726171940000000 Se
   0.1515872040000000    0.7496443850000000    0.1575824140000000 Se
   0.6407010240000000    0.3932162150000000    0.2135670440000000 Se
   0.4355728140000000    0.6496264750000000    0.0340798740000000 Se
   0.4274952540000000    0.4746575950000000    0.4534718740000000 Se
   0.1313425240000000    0.3358216850000000    0.6982583340000000 Se
   0.7467273340000000    0.0665908450000000    0.2367197640000000 Se
   0.2839183840000000    0.3441573150000000    0.6482272240000000 Se
   0.2287897840000000    0.7027467450000000    0.2860209440000000 Se
   0.7980091140000000    0.0024886050000000    0.0315915240000000 Se
   0.2560858240000000    0.1239853150000000    0.7520290740000000 Se
   0.5640791340000000    0.2400639550000000    0.5217186840000000 Se
   0.2301183040000000    0.7679153750000000    0.0886023340000000 Se
   0.5178460940000000    0.6032385750000000    0.1629315940000000 Se
   0.1057015340000000    0.1178732050000000    0.8008223240000000 Se
   0.6092162340000000    0.0445640250000000    0.5472731340000000 Se
   0.6392033240000000    0.2580682150000000    0.4488180840000000 Se
   0.5381370240000000    0.0214217650000000    0.6238230940000000 Se
   0.1550502740000000    0.5513470350000000    0.5986233439999999 Se
   0.3515016240000000    0.5997302650000000    0.4563367640000000 Se
   0.6952380140000000    0.1321243250000000    0.4407264740000000 Se
   0.7723683240000000    0.2845393250000000    0.1341557740000000 Se
   0.2928404440000000    0.5633096150000000    0.5421634140000000 Se
   0.7151357840000000    0.4119872450000000    0.1394569540000000 Se
   0.0484689940000000    0.2453211250000000    0.8061235040000000 Se
   0.0741099840000000    0.4632696050000000    0.7035595140000001 Se
   0.3872464340000000    0.7114456850000000    0.2431214040000000 Se
   0.5973591840000000    0.4553694850000000    0.4290199440000000 Se
   0.7196594640000000    0.3487165150000000    0.3388939040000000 Se
   0.4607476440000000    0.7310228750000000    0.1680211140000000 Se
   0.6636208440000000    0.4749903250000000    0.3466586240000000 Se
   0.4652319640000000    0.6686842450000000    0.3685660140000000 Se
   0.1743748340000000    0.8313162850000000    0.2917111840000000 Se
   0.1005314240000000    0.8156458950000000    0.3668953340000000 Se
   0.3644515540000000    0.2990490150000000    0.7741780840000000 Se
   0.0228280040000000    0.0273726450000000    0.9086875040000000 Se
   0.6663420940000000    0.6111653450000000    0.1110027440000000 Se
   0.0970531040000000    0.6804929350000000    0.6005978340000000 Se
   0.8971110140000000    0.0727037150000000    0.1879259740000000 Se
   0.3815768240000000    0.5189602350000000    0.6646158540000000 Se
   0.1828290340000000    0.7708754050000000    0.4922819940000000 Se
   0.6493244240000000    0.1801867550000000    0.6517896340000000 Se
   0.3063187740000000    0.4256950650000000    0.7806375040000000 Se
   0.8458289940000000    0.1368062350000000    0.3930540340000000 Se
   0.6008572540000000    0.3054422050000000    0.6595476040000000 Se
   0.3364711140000000    0.0794109450000000    0.8777458540000000 Se
   0.7980093940000000    0.5024884549999999    0.0315914740000000 Se
   0.5203381240000000    0.2996648550000000    0.7280181740000000 Se
   0.0253164540000000    0.6624468150000000    0.6751059840000000 Se
   0.5610735240000000    0.1058825450000000    0.7545561140000000 Se
   0.2792385740000000    0.2068588650000000    0.8830470340000000 Se
   0.3311954340000000    0.7856128950000000    0.4392604040000000 Se
   0.4868548640000000    0.0855244750000000    0.8289517540000000 Se
   0.6146082940000001    0.6763083650000000    0.3162237440000000 Se
   0.7444034740000000    0.5713512950000000    0.2338556640000000 Se
   0.0287787740000000    0.9640265750000000    0.1085143940000000 Se
   0.4098160040000000    0.7990007050000000    0.3695339140000000 Se
   0.6870156440000000    0.4094406850000000    0.5510018640000000 Se
   0.9227520740000000    0.2906528550000000    0.0853616740000000 Se
   0.7407766240000000    0.6299366650000000    0.0368924640000000 Se
   0.2338817840000000    0.4038551150000000    0.8565858440000000 Se
   0.5538602740000000    0.5030083350000000    0.6301675040000000 Se
   0.2595477340000000    0.9255650750000000    0.1854373840000000 Se
   0.9715457740000000    0.0914747450000000    0.1138158740000000 Se
   0.8714700640000000    0.3547553750000000    0.2904897240000000 Se
   0.9202637640000000    0.1555772650000000    0.3189439340000000 Se
   0.5415994040000000    0.8230009550000000    0.0572325440000000 Se
   0.3267454240000000    0.6420115250000000    0.6760396840000000 Se
   0.1791624440000000    0.9701394550000000    0.0597206040000000 Se
   0.0800605040000000    0.3999242050000000    0.9033863940000000 Se
   0.6277221340000000    0.5339958450000000    0.5586276540000000 Se
   0.2048038040000000    0.1880878350000000    0.9571571340000000 Se
   0.2523985740000000    0.6231481850000000    0.7507481539999999 Se
   0.6894948440000001    0.6940388950000000    0.2420207040000000 Se
   0.4123390940000000    0.7303936950000000    0.5686236240000000 Se
   0.1057015740000000    0.6178733350000000    0.8008220840000000 Se
   0.7963672740000000    0.1968765850000000    0.6020970240000000 Se
   0.4099321040000000    0.9316778449999999    0.1366438240000000 Se
   0.9774963040000000    0.0281293450000000    0.3136427540000000 Se
   0.1289163240000000    0.8980151950000000    0.4982922440000000 Se
   0.8682952040000000    0.2190406550000000    0.5259627840000000 Se
   0.6961627339999999    0.6322293250000000    0.4414007840000000 Se
   0.9459048240000000    0.3735264050000000    0.2163796340000000 Se
   0.8163844440000000    0.4227991550000000    0.4906509540000000 Se
   0.9971872240000000    0.3094233950000000    0.0112519240000000 Se
   0.4903173940000000    0.8871034650000000    0.2623606040000000 Se
   0.8433407540000000    0.0017313050000000    0.6266359840000000 Se
   0.0228279640000000    0.5273721250000000    0.9086875639999999 Se
   0.0527612540000000    0.8810465450000000    0.5706304840000000 Se
   0.5630363340000000    0.7405786350000000    0.5206881540000000 Se
   0.4843668640000000    0.9504488750000000    0.0625337240000000 Se
   0.9294922140000000    0.0905991350000000    0.5224521340000000 Se
   0.5971958340000000    0.2560820150000000    0.8550602640000000 Se
   0.6919828440000000    0.8291141150000000    0.0084385640000000 Se
   0.8971110540000000    0.5727038550000000    0.1879257340000000 Se
   0.8946228140000000    0.4376289150000000    0.4215076840000000 Se
   0.5393113740000000    0.3859443050000000    0.8567404940000000 Se
   0.2082655640000000    0.9896677850000000    0.3905660440000000 Se
   0.9518553540000000    0.3101810050000000    0.4162065140000000 Se
   0.6207363740000000    0.4829978950000000    0.7505950940000000 Se
   0.6382126740000000    0.7581416050000001    0.4471493740000000 Se
   0.3108301640000000    0.3614625950000000    0.9803096040000000 Se
   0.3617422440000000    0.8550968150000000    0.5787021440000000 Se
   0.1313425640000000    0.8358218250000000    0.6982580940000001 Se
   0.5092590040000000    0.1713021450000000    0.9580839940000000 Se
   0.0484690340000000    0.7453212550000000    0.8061232640000000 Se
   0.2852904040000000    0.8403901250000000    0.6514012940000000 Se
   0.4624932040000000    0.3704431150000000    0.9291732240000000 Se
   0.3364711540000000    0.5794110750000000    0.8777456140000000 Se
   0.7723683740000000    0.7845394550000000    0.1341555340000000 Se
   0.5672401540000001    0.0409501050000000    0.9546685340000000 Se
   0.3586500040000000    0.9957800850000000    0.3417723540000000 Se
   0.5537032240000000    0.6128970850000000    0.7507323140000000 Se
   0.6407010640000000    0.8932163450000000    0.2135668040000000 Se
   0.4841811440000000    0.5867663550000000    0.8286281540000000 Se
   0.2535976240000000    0.4889105150000000    0.9856107840000000 Se
   0.8458290440000000    0.6368063750000000    0.3930537940000000 Se
   0.7492060540000000    0.2607692650000000    0.8090546340000000 Se
   0.8224644640000000    0.2793892950000000    0.7336111840000000 Se
   0.9715458140000000    0.5914748850000000    0.1138156340000000 Se
   0.7651109840000000    0.4800277050000000    0.7037963440000000 Se
   0.6422018440000000    0.6965513950000000    0.6464929640000000 Se
   0.4390352240000000    0.9512061750000000    0.4674892640000000 Se
   0.7920585940000000    0.0658340050000000    0.8317646440000001 Se
   0.8781539940000000    0.1523795350000000    0.7273108640000000 Se
   0.9774963440000000    0.5281294850000000    0.3136425140000000 Se
   0.9005733440000000    0.3742835150000000    0.6213345640000000 Se
   0.7176238240000000    0.0470629750000000    0.9058747440000000 Se
   0.7210863540000000    0.8486419750000000    0.3392835940000000 Se
   0.8433406440000000    0.5017316250000000    0.6266363540000000 Se
   0.2792386140000000    0.7068589950000000    0.8830467940000000 Se
   0.7151358340000000    0.9119873750000000    0.1394567140000000 Se
   0.3621121440000000    0.7973595550000000    0.7751816240000000 Se
   0.9202638040000000    0.6555774049999999    0.3189436940000000 Se
   0.0741100240000000    0.9632697450000000    0.7035592740000000 Se
   0.2048038540000000    0.6880879650000000    0.9571568940000000 Se
   0.5100681240000000    0.8092619250000000    0.7231125740000000 Se
   0.5894189040000000    0.9573190550000000    0.4186954740000000 Se
   0.5869306640000000    0.8222441250000000    0.6522774240000000 Se
   0.9262143340000000    0.5922319950000000    0.5187705740000000 Se
   0.7945468740000000    0.7009090750000000    0.5981824540000000 Se
   0.9227520440000000    0.7906523350000000    0.0853617440000000 Se
   0.6638538040000000    0.9760902750000000    0.3445849340000000 Se
   0.5672401140000000    0.5409495850000000    0.9546686040000000 Se
   0.8689816339999999    0.7196801050000000    0.5240723540000000 Se
   0.3048796040000000    0.9248074750000000    0.7804828040000000 Se
   0.8714700340000000    0.8547548550000000    0.2904897940000000 Se
   0.6698041940000000    0.9127446849999999    0.5444122540000000 Se
   0.7709464940000000    0.3454135650000000    0.9390360340000000 Se
   0.8492911740000000    0.4383862250000000    0.8264632340000000 Se
   0.2304448440000000    0.9060364450000000    0.8545928940000000 Se
   0.8305989740000000    0.2182244950000000    0.9338881240000000 Se
   0.7118521940000000    0.5498615950000000    0.9023359740000000 Se
   0.5100075740000000    0.6683975049999999    0.9599697840000000 Se
   0.0800605540000000    0.8999243350000000    0.9033861540000000 Se
   0.7920586340000000    0.5658341450000000    0.8317644040000000 Se
   0.9971871940000000    0.8094228850000000    0.0112519940000000 Se
   0.5928811840000000    0.7588987149999999    0.8521043040000000 Se
   0.9459047940000000    0.8735258849999999    0.2163797040000000 Se
   0.8749321640000000    0.6563347050000000    0.7238992340000000 Se
   0.9518553239999999    0.8101804850000000    0.4162065740000000 Se
   0.8201878640000000    0.9188575650000000    0.4956184640000000 Se
   0.9740344740000000    0.2265498550000000    0.8802339640000000 Se
   0.7432648640000000    0.7650115950000000    0.8033105140000000 Se
   0.3108301340000000    0.8614620750000000    0.9803096740000000 Se
   0.9996754640000000    0.4444983350000000    0.7776699740000000 Se
   0.5356486440000000    0.8863466350000000    0.8574054840000001 Se
   0.8176996240000000    0.7837826250000000    0.7292004140000000 Se
   0.4612138840000000    0.8675756050000000    0.9315155740000000 Se
   0.8946226240000000    0.9376285950000000    0.4215083640000000 Se
   0.9483934040000001    0.0086007150000000    0.9827982740000000 Se
   0.6185221740000000    0.9768472050000000    0.7495403140000000 Se
   0.9005731540000000    0.8742831850000000    0.6213352440000000 Se
   0.2535975840000000    0.9889103750000000    0.9856110240000000 Se
   0.7689059940000000    0.9829602750000000    0.7007460740000000 Se
   0.8236501540000000    0.7204372250000000    0.9290272939999999 Se
   0.9483934540000000    0.5086008550000000    0.9827980340000000 Se
   0.7664176140000000    0.8478851450000000    0.9343284640000000 Se
   0.9740344440000001    0.7265493350000000    0.8802340340000000 Se
   0.8492911440000001    0.9383857050000000    0.8264632940000000 Se
   0.9996755040000000    0.9444984650000000    0.7776697339999999 Se
   0.5192173440000000    0.4817186450000000    0.5321245740000000 F
