Se234 F1
1.0
  19.5490800000000000    3.7622220000000000   -4.9635699999999998
   8.6884800000000002   15.0488879999999998    9.9271399999999996
   2.1721200000000001   -3.7622220000000000   19.8542799999999993
Se F
234 1
direct
   0.6663415560000000    0.1111655520000000    0.1110026250000000 Se
   0.6524727460000000    0.1909995520000000    0.6532064150000000 Se
   0.0544192560000000    0.1819757720000000    0.0059502150000000 Se
   0.2023153060000000    0.0530129520000000    0.1907389150000000 Se
   0.1278805460000000    0.0342419220000000    0.2648490050000000 Se
   0.0031372460000000    0.2460782920000000    0.2110782750000000 Se
   0.2851889160000000    0.1435141620000000    0.0828734350000000 Se
   0.1535216060000000    0.2521910520000000    0.1622847050000000 Se
   0.2315936260000000    0.2669639720000000    0.0924900650000000 Se
   0.2363338360000000    0.2045540920000000    0.2911601450000000 Se
   0.1510332960000000    0.1171154720000000    0.3958669650000000 Se
   0.4355725860000000    0.1496270420000000    0.0340796450000000 Se
   0.0287789260000000    0.4640266620000000    0.1085145050000000 Se
   0.1793423860000000    0.3324498420000000    0.2954343150000000 Se
   0.0765985260000000    0.0983444420000000    0.4699770650000000 Se
   0.1022395960000000    0.3162935720000000    0.3674127650000000 Se
   0.3845488060000000    0.2153676920000000    0.2393666250000000 Se
   0.1810595960000000    0.4714543420000000    0.0589787550000000 Se
   0.4330849660000000    0.0145513420000000    0.2676621350000000 Se
   0.2611496560000000    0.4259857320000000    0.1840046850000000 Se
   0.4587253360000000    0.2325005920000000    0.1650976050000000 Se
   0.5159578760000000    0.1050526720000000    0.1597964250000000 Se
   0.1840164460000000    0.2713322220000000    0.4948112050000000 Se
   0.4072265160000000    0.4364457520000000    0.1288442350000000 Se
   0.1207954160000000    0.5391486820000000    0.2609209650000000 Se
   0.3818029460000000    0.0786538620000000    0.4727901850000000 Se
   0.4687927260000000    0.1653473620000000    0.3665334850000000 Se
   0.1569836660000000    0.0537702520000000    0.5956944550000000 Se
   0.3350077360000000    0.2724726120000000    0.4464336850000000 Se
   0.1999169560000000    0.5600265520000000    0.1836106350000000 Se
   0.4129907960000000    0.2890816420000000    0.3760261150000000 Se
   0.3073681860000000    0.0598828320000000    0.5469002850000000 Se
   0.5415988660000000    0.3230011520000000    0.0572324250000000 Se
   0.0997511260000000    0.1812181720000000    0.6009956350000000 Se
   0.1240262060000000    0.3984570320000000    0.5006308050000000 Se
   0.2002568060000000    0.4899391420000000    0.3872816550000000 Se
   0.4843663260000000    0.4504490720000000    0.0625336050000000 Se
   0.3093872360000000    0.5117564820000000    0.2967383450000000 Se
   0.4783901960000000    0.3976366120000000    0.2552386350000000 Se
   0.0531563260000000    0.6850550520000001    0.0042996350000000 Se
   0.0509574260000000    0.3803962820000000    0.5725414250000000 Se
   0.0253163660000000    0.1624471420000000    0.6751057250000000 Se
   0.4020058660000000    0.5269282020000000    0.2521636150000000 Se
   0.2760959360000000    0.6501037420000000    0.0731672150000000 Se
   0.6137293160000000    0.1812569720000000    0.3130471550000000 Se
   0.4109118860000000    0.2321227820000000    0.5720285950000000 Se
   0.1517371460000000    0.6162705820000000    0.3953743450000000 Se
   0.7407763160000000    0.1299365820000000    0.0368925350000000 Se
   0.6929971260000000    0.1941085820000000    0.2434503050000000 Se
   0.3491463560000000    0.3617865220000000    0.5733931350000000 Se
   0.0764124160000000    0.6007368720000000    0.4690236850000000 Se
   0.6919832360000000    0.3291139220000000    0.0084388650000000 Se
   0.3305207860000000    0.1427565620000000    0.6779188550000000 Se
   0.3877533260000000    0.0153086420000000    0.6726176750000000 Se
   0.0012118560000000    0.7499661020000000    0.2097468750000000 Se
   0.4348751660000000    0.6494240820000000    0.0337940250000000 Se
   0.2754420460000000    0.3446238720000000    0.6479474350000000 Se
   0.6451551160000000    0.3898170120000000    0.2165612550000000 Se
   0.7467268460000001    0.0665911820000000    0.2367194150000000 Se
   0.1495936860000000    0.7561656320000000    0.1595492350000000 Se
   0.1357936360000000    0.3312027020000000    0.7040075550000000 Se
   0.2332770460000000    0.7076193920000000    0.2858274050000000 Se
   0.7980088560000000    0.0024886620000000    0.0315913550000000 Se
   0.2560860160000000    0.1239855320000000    0.7520289449999999 Se
   0.5134505660000001    0.6023740319999999    0.1611003050000000 Se
   0.2237291760000000    0.7741836220000000    0.0843920950000000 Se
   0.4749201160000000    0.4134784020000000    0.5130902250000000 Se
   0.5705150360000000    0.2319194720000000    0.5299819350000000 Se
   0.1057016560000000    0.1178727720000000    0.8008225150000000 Se
   0.6381733260000000    0.2575888220000000    0.4493001050000000 Se
   0.6113874760000000    0.0427542320000000    0.5484147950000000 Se
   0.5367293460000000    0.0239548820000000    0.6227137250000000 Se
   0.1575646060000000    0.5565854120000000    0.5942909050000000 Se
   0.6943089260000000    0.1323859420000000    0.4406418750000000 Se
   0.7723685260000001    0.2845395420000000    0.1341556450000000 Se
   0.7196204460000000    0.4096641020000000    0.1428741850000000 Se
   0.4038817360000000    0.5531765920000000    0.4893942050000000 Se
   0.3174001060000000    0.5534449020000000    0.5522587650000000 Se
   0.0484691160000000    0.2453206920000000    0.8061236850000000 Se
   0.0741101760000000    0.4632698320000000    0.7035593850000000 Se
   0.3854438260000000    0.7173647820000000    0.2374434050000000 Se
   0.5909664260000000    0.4580047420000000    0.4190169650000000 Se
   0.7234344060000000    0.3480730320000000    0.3415284150000000 Se
   0.4619500960000000    0.7310914420000000    0.1649984150000000 Se
   0.6623971660000000    0.4785209520000000    0.3425303750000000 Se
   0.4646582760000000    0.6731991920000000    0.3632792450000000 Se
   0.1025050760000000    0.8152850220000000    0.3661886650000000 Se
   0.1801168660000000    0.8322074720000000    0.2948676050000000 Se
   0.3594392160000000    0.3008394220000000    0.7722870850000000 Se
   0.0228281260000000    0.0273722120000000    0.9086876850000000 Se
   0.6663422160000000    0.6111649120000000    0.1110029250000000 Se
   0.0989149660000000    0.6853194820000000    0.5974374350000000 Se
   0.8971112060000000    0.0727039420000000    0.1879258450000000 Se
   0.1809662760000000    0.7723496320000000    0.4916777350000000 Se
   0.3928627160000000    0.5150339020000000    0.6768403950000000 Se
   0.3035936360000000    0.4272555820000000    0.7789647750000001 Se
   0.5149117860000000    0.3079964620000000    0.7240851250000000 Se
   0.3364713060000000    0.0794111620000000    0.8777457250000000 Se
   0.7980095160000000    0.5024880320000000    0.0315916550000000 Se
   0.5588320160000000    0.1075661420000000    0.7538490150000000 Se
   0.8479505760000000    0.1346872120000000    0.3957953550000000 Se
   0.5985202760000000    0.3208850820000000    0.6584714050000000 Se
   0.0253164060000000    0.6624472820000000    0.6751054850000000 Se
   0.2792387660000000    0.2068590820000000    0.8830469050000000 Se
   0.3354528260000000    0.7738620920000000    0.4471310250000000 Se
   0.6744306160000000    0.4142309920000000    0.5432847150000000 Se
   0.4841391660000000    0.0875322220000000    0.8272553050000000 Se
   0.6150601959999999    0.6752674319999999    0.3161309850000000 Se
   0.7467275060000000    0.5665905420000000    0.2367197050000000 Se
   0.4061115360000000    0.7993853520000000    0.3701303150000000 Se
   0.0287788860000000    0.9640265220000001    0.1085147450000000 Se
   0.9227519560000000    0.2906526620000000    0.0853614850000000 Se
   0.7407769760000000    0.6299359420000000    0.0368928350000000 Se
   0.2304443860000000    0.4060373020000000    0.8545924750000000 Se
   0.2595477860000000    0.9255654920000000    0.1854378650000000 Se
   0.5466608460000000    0.5166078720000000    0.6300727750000000 Se
   0.9715463460000000    0.0914744420000000    0.1138159250000000 Se
   0.8714701860000000    0.3547549420000000    0.2904899150000000 Se
   0.9202643260000000    0.1555769620000000    0.3189439850000000 Se
   0.5415989160000000    0.8230012920000001    0.0572321850000000 Se
   0.6157013760000000    0.5407092420000000    0.5506242350000000 Se
   0.1791625560000000    0.9701394020000000    0.0597209550000000 Se
   0.0800607060000000    0.3999244220000000    0.9033862650000000 Se
   0.3325073560000000    0.6458263820000000    0.6761010050000000 Se
   0.2048036260000000    0.1880885420000000    0.9571566550000000 Se
   0.6894949660000000    0.6940384620000000    0.2420208850000000 Se
   0.2560853760000000    0.6239857820000000    0.7520284750000000 Se
   0.7964497760000000    0.2001552020000000    0.5994560249999999 Se
   0.1057016960000000    0.6178729120000001    0.8008222750000000 Se
   0.4161533660000000    0.7311061320000000    0.5719257050000000 Se
   0.4099316060000000    0.9316781820000000    0.1366434650000000 Se
   0.9774968660000000    0.0281290420000000    0.3136428050000000 Se
   0.1226842460000000    0.9012929119999999    0.4942857250000000 Se
   0.6954453360000000    0.6306932520000000    0.4418483750000000 Se
   0.8689819460000000    0.2196800020000000    0.5240718650000000 Se
   0.9459047060000000    0.3735262120000000    0.2163794450000000 Se
   0.9971867160000000    0.3094236920000000    0.0112513950000000 Se
   0.8201881760000000    0.4188574620000000    0.4956179650000000 Se
   0.4903167460000000    0.8871040019999999    0.2623608550000000 Se
   0.8433408760000000    0.0017308720000000    0.6266361650000000 Se
   0.0228281660000000    0.5273723420000000    0.9086874450000000 Se
   0.0509573960000000    0.8803957620000000    0.5725414950000000 Se
   0.9262147060000000    0.0922317520000000    0.5187714650000000 Se
   0.5637780360000000    0.7393701420000000    0.5212596450000000 Se
   0.4843669760000000    0.9504488220000000    0.0625340750000000 Se
   0.5911896560000000    0.2595303320000000    0.8520253850000000 Se
   0.6919825860000000    0.8291141720000000    0.0084383950000000 Se
   0.8971111760000000    0.5727034220000000    0.1879259150000000 Se
   0.8946225360000000    0.4376289220000000    0.4215081150000000 Se
   0.5356481060000000    0.3863468420000000    0.8574053650000000 Se
   0.2082658360000000    0.9896675520000000    0.3905657950000000 Se
   0.9518550760000000    0.3101810020000000    0.4162069350000000 Se
   0.6382127960000000    0.7581411720000000    0.4471495550000000 Se
   0.6273101460000000    0.4732984320000000    0.7551250750000000 Se
   0.3108299060000000    0.3614626520000000    0.9803094449999999 Se
   0.3561618160000000    0.8607051820000000    0.5753546150000000 Se
   0.1313426860000000    0.8358213920000001    0.6982582750000000 Se
   0.0484691560000000    0.7453208320000000    0.8061234450000000 Se
   0.2817270560000000    0.8419341520000000    0.6494647150000000 Se
   0.5100073560000000    0.1683980720000000    0.9599695450000000 Se
   0.4612133460000000    0.3675758120000000    0.9315154550000000 Se
   0.3364706660000000    0.5794114120000000    0.8777452550000000 Se
   0.7723678760000000    0.7845397920000000    0.1341551750000000 Se
   0.5672398960000000    0.0409501520000000    0.9546683650000000 Se
   0.3586501960000000    0.9957803119999999    0.3417722250000000 Se
   0.5612897960000000    0.6042952020000000    0.7548416050000000 Se
   0.6407005760000000    0.8932166820000000    0.2135664550000000 Se
   0.4868550260000000    0.5855241720000000    0.8289516950000000 Se
   0.2535973660000000    0.4889105720000000    0.9856106150000000 Se
   0.8458291660000000    0.6368059420000000    0.3930539750000000 Se
   0.7464705460000000    0.2599890920000000    0.8097365150000000 Se
   0.8176997760000000    0.2837827120000000    0.7292005250000000 Se
   0.9715463860000000    0.5914745820000000    0.1138156850000000 Se
   0.8749323160000000    0.1563347920000000    0.7238993450000000 Se
   0.7689060060000000    0.4829601620000000    0.7007466350000000 Se
   0.4390354860000000    0.9512059420000000    0.4674890050000000 Se
   0.6441633260000000    0.6947957720000000    0.6469764250000000 Se
   0.7920587160000000    0.0658335820000000    0.8317648250000000 Se
   0.9774967560000000    0.5281293720000000    0.3136431750000000 Se
   0.9005733060000000    0.3742832720000000    0.6213353550000000 Se
   0.7176239460000000    0.0470625520000000    0.9058749250000000 Se
   0.7210857060000000    0.8486425020000000    0.3392838450000000 Se
   0.8433407660000000    0.5017311920000000    0.6266365350000001 Se
   0.2792381260000000    0.7068593320000000    0.8830464350000000 Se
   0.7151353360000000    0.9119877120000000    0.1394563550000000 Se
   0.3621123460000000    0.7973597820000000    0.7751814950000000 Se
   0.9202642160000000    0.6555772920000000    0.3189443550000000 Se
   0.1954920860000000    0.6966423620000000    0.9465107650000000 Se
   0.0741101360000000    0.9632696920000000    0.7035596250000000 Se
   0.5869911660000000    0.9553948720000000    0.4196218950000000 Se
   0.5124960160000001    0.8034726620000000    0.7263877050000001 Se
   0.5869307860000000    0.8222436920000000    0.6522776050000000 Se
   0.9262147460000000    0.5922318820000000    0.5187712249999999 Se
   0.7945469960000000    0.7009086520000000    0.5981826350000000 Se
   0.9227526160000000    0.7906520320000000    0.0853617850000000 Se
   0.6569089060000000    0.9792289520000000    0.3419006950000000 Se
   0.5672405560000000    0.5409495220000000    0.9546686650000000 Se
   0.8689817660000000    0.7196796820000000    0.5240725450000000 Se
   0.3048798060000000    0.9248077020000000    0.7804826750000000 Se
   0.8714702260000000    0.8547550720000000    0.2904896750000000 Se
   0.6698036960000000    0.9127450220000000    0.5444118950000000 Se
   0.7664177660000000    0.3478852320000000    0.9343285850000000 Se
   0.8236505360000000    0.2204370320000000    0.9290275950000000 Se
   0.8492912960000000    0.4383857920000000    0.8264634150000000 Se
   0.2304450360000000    0.9060366720000000    0.8545927750000000 Se
   0.5121776560000000    0.6658668520000000    0.9624129750000000 Se
   0.0800605160000000    0.8999241019999999    0.9033869450000001 Se
   0.7176239960000000    0.5470626820000000    0.9058746850000000 Se
   0.7920587560000000    0.5658337120000000    0.8317645849999999 Se
   0.9971873760000000    0.8094230620000000    0.0112516950000000 Se
   0.5928813060000000    0.7588982820000000    0.8521044850000000 Se
   0.9459052060000001    0.8735257720000000    0.2163803550000000 Se
   0.8749322859999999    0.6563342720000001    0.7238994150000000 Se
   0.9490202860000000    0.8132371220000000    0.4142064750000000 Se
   0.8201880660000000    0.9188577820000000    0.4956183350000000 Se
   0.9740343460000001    0.2265496620000000    0.8802337850000000 Se
   0.7432649860000000    0.7650111620000000    0.8033106950000000 Se
   0.3108299460000000    0.8614627820000000    0.9803092050000000 Se
   0.9996754160000000    0.4444988020000000    0.7776694850000000 Se
   0.5356487660000000    0.8863462020000000    0.8574056650000000 Se
   0.8176997459999999    0.7837821920000000    0.7292005950000000 Se
   0.4612136260000000    0.8675756620000000    0.9315154050000000 Se
   0.8946233360000000    0.9376284820000000    0.4215079750000000 Se
   0.9483935959999999    0.0086009020000000    0.9827979650000001 Se
   0.6185222860000000    0.9768471520000001    0.7495406650000001 Se
   0.9005737260000000    0.8742828820000000    0.6213352850000000 Se
   0.2535973160000000    0.9889104320000000    0.9856108550000000 Se
   0.7689061160000000    0.9829598420000000    0.7007462650000000 Se
   0.8236502760000000    0.7204367920000000    0.9290274750000000 Se
   0.9483936360000000    0.5086010320000000    0.9827977250000000 Se
   0.7664173560000000    0.8478852019999999    0.9343283050000000 Se
   0.9740343960000000    0.7265498020000000    0.8802335450000000 Se
   0.8492913360000000    0.9383859320000000    0.8264631750000000 Se
   0.9996753760000000    0.9444986620000000    0.7776697250000000 Se
   0.4034170160000000    0.4336136620000000    0.4259525950000000 F
