H1 Se233
1.0
  19.5490800000000000    3.7622220000000000   -4.9635699999999998
   8.6884800000000002   15.0488879999999998    9.9271399999999996
   2.1721200000000001   -3.7622220000000000   19.8542799999999993
H Se
1 233
direct
   0.4309276700000000    0.4652876000000000    0.5109415240000000 H
   0.6663418700000000    0.1111654000000000    0.1110023340000000 Se
   0.0544198100000000    0.1819753300000000    0.0059508740000000 Se
   0.2023154700000000    0.0530129900000000    0.1907392240000000 Se
   0.1278807100000000    0.0342419600000000    0.2648493140000000 Se
   0.0031374100000000    0.2460783400000000    0.2110785840000000 Se
   0.2851891600000000    0.1435133700000000    0.0828734440000000 Se
   0.1535217000000000    0.2521904500000000    0.1622853240000000 Se
   0.2279564600000000    0.2709614800000000    0.0881752240000000 Se
   0.2339069900000000    0.2076160700000000    0.2880021040000000 Se
   0.1510334600000000    0.1171155100000000    0.3958672740000000 Se
   0.4355729100000000    0.1496269000000000    0.0340793440000000 Se
   0.0287784000000000    0.4640268200000000    0.1085145840000000 Se
   0.1766744500000000    0.3350639900000000    0.2933032840000000 Se
   0.0765987000000000    0.0983444800000000    0.4699773740000000 Se
   0.1022396900000000    0.3162929600000000    0.3674133840000000 Se
   0.3842907400000000    0.2137296100000000    0.2392080040000000 Se
   0.1791627700000000    0.4701395800000000    0.0597210240000000 Se
   0.4330844400000000    0.0145515000000000    0.2676622140000000 Se
   0.2590888200000000    0.4260106700000000    0.1847959040000000 Se
   0.4587255100000000    0.2325006400000000    0.1650979140000000 Se
   0.5159582000000000    0.1050525300000000    0.1597961240000000 Se
   0.1826249800000000    0.2717185900000000    0.4931301640000000 Se
   0.1264572700000000    0.5364755900000000    0.2623548040000000 Se
   0.4099317300000000    0.4316780900000000    0.1366440140000000 Se
   0.3818024300000000    0.0786540200000000    0.4727902640000000 Se
   0.4653289700000000    0.1710790800000000    0.3638427840000000 Se
   0.1569839900000000    0.0537701100000000    0.5956941540000000 Se
   0.2029425100000000    0.5533516300000000    0.1904370840000000 Se
   0.3337793700000000    0.2772848600000000    0.4442539840000000 Se
   0.4056877000000000    0.2997255300000000    0.3679124240000000 Se
   0.3073676600000000    0.0598829900000000    0.5469003640000000 Se
   0.5415991900000000    0.3230010100000000    0.0572321240000000 Se
   0.0997514500000000    0.1812180300000000    0.6009953340000000 Se
   0.1253924400000000    0.3991665100000000    0.4984313340000000 Se
   0.2069806300000000    0.4900027400000000    0.3887079240000000 Se
   0.4843665000000000    0.4504491200000000    0.0625339140000000 Se
   0.4910405400000000    0.3807469700000000    0.2636052740000000 Se
   0.0544198500000000    0.6819754700000000    0.0059506340000000 Se
   0.0509576700000000    0.3803954800000000    0.5725414340000000 Se
   0.0253166800000000    0.1624470000000000    0.6751054240000000 Se
   0.3581247500000000    0.4916354400000000    0.3409402340000000 Se
   0.2868062800000000    0.6450254900000000    0.0832896440000000 Se
   0.6150597100000000    0.1752681100000000    0.3161309940000000 Se
   0.4311886500000000    0.5073283200000001    0.2719966440000000 Se
   0.4147853000000000    0.2330703600000000    0.5694472940000000 Se
   0.1523670000000000    0.6162016800000000    0.3959750340000000 Se
   0.7407766400000000    0.1299364300000000    0.0368922340000000 Se
   0.6894944700000000    0.1940391400000000    0.2420208940000000 Se
   0.0766358900000000    0.5991271300000000    0.4690677140000000 Se
   0.6919828600000000    0.3291138900000000    0.0084383340000000 Se
   0.3588687000000000    0.3621236500000000    0.5722329640000000 Se
   0.3305204100000000    0.1427565300000000    0.6779183240000000 Se
   0.0031374500000000    0.7460784700000000    0.2110783440000000 Se
   0.3877529500000000    0.0153086200000000    0.6726171439999999 Se
   0.6407007000000000    0.3932165900000000    0.2135670040000000 Se
   0.1549913100000000    0.7493323300000000    0.1646730140000000 Se
   0.4355727200000000    0.6496265700000000    0.0340800140000000 Se
   0.1313429600000000    0.3358211100000000    0.6982582140000000 Se
   0.2842512500000000    0.3454208100000000    0.6464251940000000 Se
   0.7467271599999999    0.0665910300000000    0.2367191140000000 Se
   0.2362465500000000    0.7057882599999999    0.2892861340000000 Se
   0.7980091800000000    0.0024885100000000    0.0315910540000000 Se
   0.5600523200000000    0.2455332600000000    0.5172807040000000 Se
   0.2560856500000000    0.1239855000000000    0.7520284140000000 Se
   0.2259193200000000    0.7726857600000000    0.0877510440000000 Se
   0.5144924600000000    0.6059798500000000    0.1577439340000000 Se
   0.1057019700000000    0.1178726300000000    0.8008222140000000 Se
   0.6378421100000000    0.2587118200000000    0.4458873940000000 Se
   0.5381367000000000    0.0214221500000000    0.6238230440000000 Se
   0.6118325600000000    0.0416287000000000    0.5501474940000000 Se
   0.1568673000000000    0.5544459900000001    0.5949903540000000 Se
   0.6945476800000000    0.1303657900000000    0.4416036440000000 Se
   0.7723681500000000    0.2845395100000000    0.1341551140000000 Se
   0.3901039900000000    0.5588606100000000    0.4836877740000000 Se
   0.7151354599999999    0.4119876200000000    0.1394569040000000 Se
   0.3106731000000000    0.5547404400000000    0.5530611940000000 Se
   0.0484692800000000    0.2453207400000000    0.8061239940000000 Se
   0.0741102700000000    0.4632692200000000    0.7035600040000000 Se
   0.3847824700000000    0.7155641300000000    0.2367150840000000 Se
   0.5885025200000000    0.4522181000000000    0.4251279740000000 Se
   0.7195199700000000    0.3511445200000000    0.3398275840000000 Se
   0.4601293200000000    0.7333590600000000    0.1633474240000000 Se
   0.6558196200000000    0.4781660800000000    0.3449577240000000 Se
   0.4635949900000000    0.6715648000000000    0.3625766540000000 Se
   0.1030111300000000    0.8138455500000000    0.3687034440000000 Se
   0.1755330200000000    0.8343824500000000    0.2928381840000000 Se
   0.3626608800000000    0.3013084800000000    0.7726586340000000 Se
   0.0228282900000000    0.0273722500000000    0.9086879940000000 Se
   0.6663417600000000    0.6111657300000000    0.1110027040000000 Se
   0.0996534500000000    0.6820576800000000    0.6002261240000000 Se
   0.8971114500000000    0.0727031400000000    0.1879258540000000 Se
   0.6423248300000000    0.1946514700000000    0.6446213940000000 Se
   0.1836651900000000    0.7713409000000000    0.4934805340000000 Se
   0.5876323000000000    0.3212953400000000    0.6508385540000000 Se
   0.3896168900000000    0.5140202500000000    0.6777120140000000 Se
   0.5126480200000000    0.3045480900000000    0.7248289140000000 Se
   0.3034087200000000    0.4282188000000000    0.7788483740000000 Se
   0.8458292900000000    0.1368058500000000    0.3930545240000000 Se
   0.3364709400000000    0.0794111300000000    0.8777451940000000 Se
   0.7980092200000000    0.5024886500000000    0.0315908140000000 Se
   0.5608095000000000    0.1051749600000000    0.7552976340000001 Se
   0.0246303300000000    0.6645221400000000    0.6737596240000000 Se
   0.2792382500000000    0.2068592400000000    0.8830469840000000 Se
   0.3324358300000000    0.7786717399999999    0.4416442340000000 Se
   0.6719234200000000    0.4127814000000000    0.5469600240000000 Se
   0.4868546900000000    0.0855246600000000    0.8289510940000000 Se
   0.7447405200000000    0.5675744700000001    0.2376483840000000 Se
   0.6135917700000000    0.6772614800000000    0.3157521240000000 Se
   0.4072657100000000    0.7985068300000000    0.3682743540000000 Se
   0.0287784400000000    0.9640269500000000    0.1085143440000000 Se
   0.9227521200000000    0.2906527100000000    0.0853617940000000 Se
   0.7407765300000000    0.6299367600000000    0.0368926040000000 Se
   0.2310330700000000    0.4057067300000000    0.8546104940000000 Se
   0.5388358700000000    0.5187294500000000    0.6269953440000000 Se
   0.2595480200000000    0.9255646900000000    0.1854378740000000 Se
   0.9715458900000000    0.0914752600000000    0.1138156940000000 Se
   0.6106038000000000    0.5409533600000000    0.5505512040000000 Se
   0.8714703499999999    0.3547549800000000    0.2904902240000000 Se
   0.9202640500000000    0.1555768800000000    0.3189444240000000 Se
   0.5415990800000000    0.8230013300000000    0.0572324940000000 Se
   0.1791627300000000    0.9701390600000001    0.0597210940000000 Se
   0.0800608000000000    0.3999238200000000    0.9033868840000000 Se
   0.3311626800000000    0.6435937200000000    0.6789590340000000 Se
   0.2048034800000000    0.1880882100000000    0.9571570840000000 Se
   0.6894945099999999    0.6940392800000000    0.2420206540000000 Se
   0.2553233000000000    0.6255809300000000    0.7511751140000000 Se
   0.7939176400000000    0.2027330500000000    0.5973981040000000 Se
   0.4124060900000000    0.7327855500000000    0.5680532040000000 Se
   0.1057018600000000    0.6178729500000000    0.8008225839999999 Se
   0.4099317800000000    0.9316782200000000    0.1366437740000000 Se
   0.9774964200000000    0.0281298600000000    0.3136425740000000 Se
   0.1243067300000000    0.8991994300000000    0.4979488040000000 Se
   0.6937513800000000    0.6317521900000000    0.4419426140000000 Se
   0.8694059100000000    0.2202576300000000    0.5243023840000000 Se
   0.9459048700000000    0.3735262600000000    0.2163797540000000 Se
   0.9971868800000000    0.3094237400000000    0.0112517040000000 Se
   0.8201883400000000    0.4188575000000000    0.4956182740000000 Se
   0.4903170700000000    0.8871038500000000    0.2623605540000000 Se
   0.8433410500000000    0.0017309100000000    0.6266364740000000 Se
   0.0228282600000000    0.5273717400000000    0.9086880540000000 Se
   0.0522799200000000    0.8785967900000000    0.5743465540000000 Se
   0.9263231600000000    0.0927020800000000    0.5191343740000000 Se
   0.5623992400000000    0.7412077600000000    0.5208951940000000 Se
   0.4843665400000000    0.9504492500000000    0.0625336740000000 Se
   0.5938174300000000    0.2570553800000000    0.8515677840000000 Se
   0.6919831400000001    0.8291137300000000    0.0084390540000000 Se
   0.8971113400000000    0.5727034700000000    0.1879262240000000 Se
   0.8946231000000000    0.4376285300000000    0.4215081740000000 Se
   0.2082660000000000    0.9896675900000000    0.3905661040000000 Se
   0.5392607300000000    0.3831749000000000    0.8589218540000000 Se
   0.9518554000000000    0.3101808500000000    0.4162066340000000 Se
   0.6194656400000000    0.4781567000000000    0.7509866140000000 Se
   0.6382125000000000    0.7581417900000000    0.4471487140000000 Se
   0.3108298400000000    0.3614629800000000    0.9803095640000000 Se
   0.3582175100000000    0.8600300200000000    0.5738943540000000 Se
   0.1313428500000000    0.8358214300000000    0.6982585840000000 Se
   0.0484693200000000    0.7453208700000000    0.8061237540000000 Se
   0.2815706500000000    0.8446644000000000    0.6462011540000000 Se
   0.5104923800000000    0.1677362000000000    0.9613289240000000 Se
   0.4625178400000000    0.3662764300000000    0.9308439340000000 Se
   0.3364708300000000    0.5794114600000000    0.8777455640000000 Se
   0.7723680400000000    0.7845398400000000    0.1341554840000000 Se
   0.5672399800000000    0.0409502900000000    0.9546678740000000 Se
   0.3586496800000000    0.9957804700000000    0.3417723040000000 Se
   0.5582637000000000    0.6061534800000000    0.7550122140000000 Se
   0.6407007400000000    0.8932167300000000    0.2135667640000000 Se
   0.4859913400000000    0.5838035700000000    0.8308776740000000 Se
   0.7434649500000000    0.2663196100000000    0.8030300140000000 Se
   0.2535973000000000    0.4889109000000000    0.9856107340000000 Se
   0.8458293300000000    0.6368059800000000    0.3930542840000000 Se
   0.8185407900000000    0.2840022300000000    0.7295390940000001 Se
   0.9715458600000000    0.5914747400000000    0.1138157640000000 Se
   0.8743976400000000    0.1568237800000000    0.7236413140000000 Se
   0.6428360000000000    0.6945275000000000    0.6474642640000000 Se
   0.7689063300000000    0.4829600200000000    0.7007463340000000 Se
   0.4390350500000000    0.9512063700000000    0.4674886040000000 Se
   0.7920590300000000    0.0658334300000000    0.8317645240000000 Se
   0.9774963900000000    0.5281293400000000    0.3136426440000000 Se
   0.9005736300000000    0.3742831300000000    0.6213350540000000 Se
   0.7176242700000000    0.0470624000000000    0.9058746240000000 Se
   0.7210860300000000    0.8486423600000000    0.3392835440000000 Se
   0.8433410900000000    0.5017310500000000    0.6266362340000000 Se
   0.2792382900000000    0.7068593800000000    0.8830467440000001 Se
   0.7151355000000000    0.9119877600000000    0.1394566640000000 Se
   0.3621118200000000    0.7973599400000000    0.7751815740000000 Se
   0.9202640900000000    0.6555770100000000    0.3189441840000000 Se
   0.0741104600000000    0.9632695500000000    0.7035593240000000 Se
   0.2048035300000000    0.6880883500000000    0.9571568440000000 Se
   0.5116217100000000    0.8047849200000000    0.7266311540000000 Se
   0.5894187300000000    0.9573192500000000    0.4186948140000000 Se
   0.5869303299999999    0.8222445000000000    0.6522773740000000 Se
   0.9262146200000000    0.5922316100000000    0.5187710639999999 Se
   0.7945473199999999    0.7009085000000000    0.5981823340000000 Se
   0.9227521600000000    0.7906528400000000    0.0853615540000000 Se
   0.6638534800000000    0.9760906600000000    0.3445848940000000 Se
   0.5672397900000000    0.5409499600000000    0.9546685539999999 Se
   0.8689820800000000    0.7196795300000000    0.5240722440000000 Se
   0.3048792800000000    0.9248078600000000    0.7804827540000000 Se
   0.8714703200000000    0.8547544700000000    0.2904902840000000 Se
   0.6698040200000001    0.9127448700000000    0.5444115940000001 Se
   0.7675264500000000    0.3482672000000000    0.9349008540000000 Se
   0.8245610200000000    0.2213530600000000    0.9287569140000000 Se
   0.8492916200000000    0.4383856500000000    0.8264631140000001 Se
   0.2304445200000000    0.9060368300000000    0.8545928440000000 Se
   0.5100072500000000    0.6683978800000000    0.9599697340000000 Se
   0.0800608400000000    0.8999239500000000    0.9033866440000000 Se
   0.7176241600000000    0.5470627300000001    0.9058749940000000 Se
   0.7920589200000000    0.5658337600000000    0.8317648940000000 Se
   0.9971869300000000    0.8094238700000000    0.0112514640000000 Se
   0.5928808600000000    0.7588991000000000    0.8521042540000000 Se
   0.9459049100000000    0.8735263900000000    0.2163795140000000 Se
   0.8749326100000000    0.6563341300000000    0.7238991140000000 Se
   0.9518554400000000    0.8101809900000000    0.4162063940000000 Se
   0.8201883100000000    0.9188569800000000    0.4956183440000000 Se
   0.9740345200000000    0.2265497100000000    0.8802340940000000 Se
   0.7432651500000000    0.7650112100000001    0.8033110040000000 Se
   0.3108298000000000    0.8614624600000000    0.9803096340000000 Se
   0.9996755100000000    0.4444981900000000    0.7776701040000000 Se
   0.5356483200000000    0.8863470200000000    0.8574054340000000 Se
   0.8176999100000000    0.7837822400000000    0.7292009040000000 Se
   0.4612135600000000    0.8675759900000000    0.9315155240000000 Se
   0.8946230700000000    0.9376280100000000    0.4215082440000000 Se
   0.9483935300000000    0.0086012200000000    0.9827980840000000 Se
   0.6185219900000000    0.9768477700000000    0.7495398240000000 Se
   0.9005736000000000    0.8742826100000000    0.6213351240000000 Se
   0.2535972600000000    0.9889107600000000    0.9856109740000000 Se
   0.7689062800000001    0.9829598800000000    0.7007465640000000 Se
   0.8236504400000000    0.7204368400000000    0.9290277840000000 Se
   0.9483934900000000    0.5086007100000000    0.9827981540000000 Se
   0.7664179000000000    0.8478847600000000    0.9343289640000000 Se
   0.9740345600000000    0.7265498400000000    0.8802338540000000 Se
   0.8492914300000000    0.9383853200000000    0.8264637840000000 Se
   0.9996755500000000    0.9444983200000000    0.7776698640000000 Se
