H1 Se233
1.0
  19.5490800000000000    3.7622220000000000   -4.9635699999999998
   8.6884800000000002   15.0488879999999998    9.9271399999999996
   2.1721200000000001   -3.7622220000000000   19.8542799999999993
H Se
1 233
direct
   0.5648490400000000    0.4879943370000000    0.4477528800000000 H
   0.6663421600000000    0.1111653570000000    0.1110025600000000 Se
   0.3587701500000000    0.3587226870000000    0.5753213400000000 Se
   0.6451192800000000    0.1977407770000000    0.6443697800000000 Se
   0.6446966700000000    0.7004651170000000    0.6447539600000000 Se
   0.0544194200000000    0.1819754570000000    0.0059502800000000 Se
   0.2023152200000000    0.0530128770000000    0.1907386100000000 Se
   0.1278803000000000    0.0342420370000000    0.2648493200000000 Se
   0.0031374000000000    0.2460779770000000    0.2110783300000000 Se
   0.2851888200000000    0.1435140870000000    0.0828731300000000 Se
   0.1535213700000000    0.2521911670000000    0.1622850100000000 Se
   0.2279562900000000    0.2709620070000000    0.0881743100000000 Se
   0.2396265700000000    0.1998917770000000    0.2932358700000000 Se
   0.1510330500000000    0.1171155870000000    0.3958672700000000 Se
   0.4355731900000000    0.1496268570000000    0.0340795700000000 Se
   0.0287783900000000    0.4640264570000000    0.1085143400000000 Se
   0.1766741200000000    0.3350647170000000    0.2933029700000000 Se
   0.0765982900000000    0.0983445570000000    0.4699773700000000 Se
   0.1022393600000000    0.3162936870000000    0.3674130700000000 Se
   0.3856210700000000    0.2100026170000000    0.2417419400000000 Se
   0.1791623600000000    0.4701396570000000    0.0597210200000000 Se
   0.4330848800000000    0.0145512670000000    0.2676618300000000 Se
   0.2595476500000000    0.4255652770000000    0.1854378000000000 Se
   0.4587259400000000    0.2325003970000000    0.1650975300000000 Se
   0.5159584800000000    0.1050524870000000    0.1597963500000000 Se
   0.1848362500000000    0.2720245270000000    0.4935554600000000 Se
   0.4071380800000000    0.4322359570000000    0.1382773400000000 Se
   0.1278803500000000    0.5342421670000000    0.2648490800000000 Se
   0.3818027100000000    0.0786539770000000    0.4727904900000000 Se
   0.4672784000000000    0.1688019070000000    0.3655230800000000 Se
   0.1569835800000000    0.0537701770000000    0.5956941500000000 Se
   0.2023151100000000    0.5530131970000000    0.1907389800000000 Se
   0.3338269100000000    0.2766552370000000    0.4442819000000000 Se
   0.4072433000000000    0.2969544070000000    0.3694164800000000 Se
   0.3073679500000000    0.0598829470000000    0.5469005900000000 Se
   0.5415994700000000    0.3230009670000000    0.0572323600000000 Se
   0.0997510400000000    0.1812180970000000    0.6009953300000000 Se
   0.1253921100000000    0.3991672370000000    0.4984310300000000 Se
   0.2082656400000000    0.4896677970000000    0.3905658600000000 Se
   0.4843669300000000    0.4504488870000000    0.0625335300000000 Se
   0.4903204200000000    0.3890104870000000    0.2626301000000000 Se
   0.0544194600000000    0.6819755970000000    0.0059500400000000 Se
   0.0509575900000000    0.3803959670000000    0.5725414900000000 Se
   0.0253166000000000    0.1624474770000000    0.6751054800000000 Se
   0.3560689300000000    0.4979714170000000    0.3394935800000000 Se
   0.2843164900000000    0.6433118770000000    0.0836946900000000 Se
   0.6153775000000000    0.1810843270000000    0.3136366900000000 Se
   0.4349335200000000    0.5146224170000000    0.2703584800000000 Se
   0.4153387500000000    0.2312448970000000    0.5700727600000000 Se
   0.1510331000000000    0.6171157170000000    0.3958670300000000 Se
   0.7407769199999999    0.1299363870000000    0.0368924600000000 Se
   0.6894949100000000    0.1940389070000000    0.2420205200000000 Se
   0.0765983300000000    0.5983446870000000    0.4699771300000000 Se
   0.6919831500000000    0.3291138470000000    0.0084385600000000 Se
   0.3305207000000000    0.1427564870000000    0.6779185500000000 Se
   0.0031372900000000    0.7460782969999999    0.2110787000000000 Se
   0.3877532300000000    0.0153085670000000    0.6726173700000000 Se
   0.4470355500000000    0.6386550570000000    0.0456137300000000 Se
   0.6415452100000000    0.3943997670000000    0.2119076200000000 Se
   0.4370000100000000    0.4530070470000000    0.4650889300000000 Se
   0.1535213400000000    0.7521906570000000    0.1622850800000000 Se
   0.1354175500000000    0.3328463670000000    0.6987571400000000 Se
   0.2833604500000000    0.3411422870000000    0.6486093100000000 Se
   0.7467274500000000    0.0665909870000000    0.2367193400000000 Se
   0.7980094599999999    0.0024884670000000    0.0315912800000000 Se
   0.2343619800000000    0.7083275770000000    0.2878650100000000 Se
   0.2560859300000000    0.1239854570000000    0.7520286400000000 Se
   0.5656142000000000    0.2438337670000000    0.5181513599999999 Se
   0.2279561000000000    0.7709616870000000    0.0881749900000000 Se
   0.5282375600000000    0.5959569670000000    0.1712494900000000 Se
   0.1057015600000000    0.1178726970000000    0.8008222100000000 Se
   0.6392198700000000    0.2672969570000000    0.4429661000000000 Se
   0.5381369100000000    0.0214214470000000    0.6238235800000000 Se
   0.6125716700000000    0.0401924770000000    0.5497134800000000 Se
   0.1569836200000000    0.5537703170000000    0.5956939100000000 Se
   0.6936255600000000    0.1390197970000000    0.4385969000000000 Se
   0.7723684400000000    0.2845394670000000    0.1341553400000000 Se
   0.7151359000000000    0.4119873870000000    0.1394565200000000 Se
   0.3027464900000000    0.5582177670000000    0.5463814800000000 Se
   0.3788077000000000    0.5777907970000000    0.4739442000000000 Se
   0.0484693500000000    0.2453210270000000    0.8061234400000000 Se
   0.0741100900000000    0.4632697570000000    0.7035590800000000 Se
   0.3851590000000000    0.7158406870000000    0.2371014000000000 Se
   0.7228924200000000    0.3405851970000000    0.3416606200000000 Se
   0.4650610500000000    0.7284248570000000    0.1684912800000000 Se
   0.6697401900000000    0.4517997870000000    0.3651878300000000 Se
   0.4638213400000000    0.6682626770000000    0.3647687500000000 Se
   0.1022393200000000    0.8162931670000000    0.3674131400000000 Se
   0.1766740900000000    0.8350641970000000    0.2933030400000000 Se
   0.3625500100000000    0.2984589870000000    0.7742003900000000 Se
   0.0228282800000000    0.0273718970000000    0.9086877400000000 Se
   0.0997510800000000    0.6812182369999999    0.6009950900000000 Se
   0.6685042600000000    0.6132749770000000    0.1105827100000000 Se
   0.8971111200000000    0.0727038670000000    0.1879255500000000 Se
   0.3815323900000000    0.5145496070000000    0.6722306000000000 Se
   0.1819908100000000    0.7692927670000000    0.4936949700000000 Se
   0.6421785500000000    0.4413710970000000    0.5124065200000000 Se
   0.5897366700000000    0.3252747570000000    0.6501245200000000 Se
   0.3020006000000000    0.4260185070000000    0.7793014700000001 Se
   0.5165143400000000    0.3057595670000000    0.7258202200000000 Se
   0.3364712200000000    0.0794110870000000    0.8777454300000000 Se
   0.7980094300000000    0.5024879470000000    0.0315913500000000 Se
   0.0253165700000000    0.6624469670000001    0.6751055500000001 Se
   0.5612896600000000    0.1042949970000000    0.7548415400000000 Se
   0.2792386800000000    0.2068590070000000    0.8830466000000000 Se
   0.8524730700000001    0.1274884470000000    0.3988610600000000 Se
   0.3351339300000000    0.7748151370000000    0.4472015300000000 Se
   0.4868549000000000    0.0855239670000000    0.8289516300000001 Se
   0.4087000500000000    0.7939515170000000    0.3724524000000000 Se
   0.6167719500000000    0.6750345070000000    0.3163107500000000 Se
   0.7477183400000000    0.5689422669999999    0.2363348200000000 Se
   0.0287782800000000    0.9640267870000000    0.1085147100000000 Se
   0.9227521100000000    0.2906523470000000    0.0853615500000000 Se
   0.7407768900000000    0.6299358670000000    0.0368925300000000 Se
   0.2304448300000000    0.4060373070000000    0.8545930100000000 Se
   0.5352704500000000    0.5159845870000001    0.6314570500000000 Se
   0.8651957500000000    0.3530281570000000    0.2902334000000000 Se
   0.5990415700000000    0.5460738270000000    0.5484218199999999 Se
   0.2595476900000000    0.9255654169999999    0.1854375600000000 Se
   0.9715458900000000    0.0914748970000000    0.1138154500000000 Se
   0.9202638700000000    0.1555774170000000    0.3189435000000000 Se
   0.5415993600000000    0.8230012870000000    0.0572327300000000 Se
   0.1791624000000000    0.9701397870000000    0.0597207800000000 Se
   0.3260710900000000    0.6420507870000000    0.6775410900000000 Se
   0.0800604700000000    0.3999245370000000    0.9033865700000000 Se
   0.2048037700000000    0.1880881670000000    0.9571573100000000 Se
   0.6907604300000000    0.6957748969999999    0.2420781600000000 Se
   0.2560858200000000    0.6239857870000000    0.7520290100000000 Se
   0.4173296100000000    0.7269231770000000    0.5737684400000000 Se
   0.1057014600000000    0.6178730270000000    0.8008225800000000 Se
   0.7974209799999999    0.1996059670000000    0.5992141200000000 Se
   0.4099320600000000    0.9316781770000000    0.1366440000000000 Se
   0.9774964100000000    0.0281294970000000    0.3136423300000000 Se
   0.1253920700000000    0.8991667169999999    0.4984311000000000 Se
   0.8109794500000000    0.4191151770000000    0.4910600000000000 Se
   0.6948085000000001    0.6321834570000000    0.4416614500000000 Se
   0.9459048600000000    0.3735258970000000    0.2163795100000000 Se
   0.8726172900000000    0.2145545770000000    0.5256196800000000 Se
   0.9971868800000000    0.3094233770000000    0.0112514600000000 Se
   0.4903173500000000    0.8871038070000000    0.2623607800000000 Se
   0.8433406400000000    0.0017309870000000    0.6266364700000000 Se
   0.0228283300000000    0.5273720270000000    0.9086875000000000 Se
   0.0509576300000000    0.8803960970000000    0.5725412500000000 Se
   0.9262142400000000    0.0922321970000000    0.5187709900000000 Se
   0.4843668200000000    0.9504492070000000    0.0625339000000000 Se
   0.5651801400000001    0.7444382470000001    0.5191500100000001 Se
   0.5948045600000000    0.2632607070000000    0.8512929000000000 Se
   0.8878960600000000    0.4363697270000000    0.4201806400000000 Se
   0.9469934600000000    0.3098048170000000    0.4148497000000000 Se
   0.6919830400000000    0.8291141670000000    0.0084389300000000 Se
   0.8975022800000000    0.5741179770000000    0.1875664800000000 Se
   0.5366793300000000    0.3920508970000000    0.8551934800000000 Se
   0.2082655900000000    0.9896676670000000    0.3905661000000000 Se
   0.6210102000000000    0.4748663470000000    0.7524723300000000 Se
   0.6395637300000000    0.7614503470000000    0.4448973200000000 Se
   0.3108298200000000    0.3614625770000000    0.9803091400000000 Se
   0.3613416300000000    0.8535278670000001    0.5810821100000000 Se
   0.1313424500000000    0.8358215070000000    0.6982585800000000 Se
   0.0484693200000000    0.7453205070000000    0.8061235100000000 Se
   0.2817268100000000    0.8419342670000000    0.6494650199999999 Se
   0.5100079600000000    0.1683978870000000    0.9599694700000000 Se
   0.4612138000000000    0.3675758070000000    0.9315160000000000 Se
   0.3364711100000000    0.5794114170000000    0.8777458000000000 Se
   0.7723683300000000    0.7845397970000000    0.1341557100000000 Se
   0.5672405000000000    0.0409499670000000    0.9546682900000000 Se
   0.3586500500000000    0.9957806970000000    0.3417720600000000 Se
   0.5629625500000000    0.6042357070000000    0.7543690400000000 Se
   0.6407010200000000    0.8932166870000000    0.2135669900000000 Se
   0.4868547900000000    0.5855242870000000    0.8289520000000000 Se
   0.7455019600000000    0.2647983770000000    0.8032537199999999 Se
   0.2535972800000000    0.4889104970000000    0.9856103200000000 Se
   0.8163743700000000    0.2865390870000000    0.7256349600000001 Se
   0.8455548700000000    0.6373712770000000    0.3932007900000000 Se
   0.7638129900000000    0.4870424370000000    0.6960704400000000 Se
   0.9715458500000000    0.5914743770000001    0.1138155200000000 Se
   0.8749322300000000    0.1563347170000000    0.7238990500000000 Se
   0.4390353400000000    0.9512063270000000    0.4674888400000000 Se
   0.7920586200000000    0.0658335070000000    0.8317645200000000 Se
   0.8958111100000000    0.3771279870000000    0.6172392000000000 Se
   0.9774962300000000    0.5281291670000000    0.3136430000000000 Se
   0.7176238600000000    0.0470624770000000    0.9058746200000000 Se
   0.8408549200000000    0.5029704570000000    0.6240692600000000 Se
   0.7210863100000000    0.8486423170000000    0.3392837700000000 Se
   0.2792385700000000    0.7068593370000000    0.8830469700000000 Se
   0.7151357900000000    0.9119877170000000    0.1394568900000000 Se
   0.3621121000000000    0.7973598970000000    0.7751818000000000 Se
   0.9198003700000000    0.6559459570000000    0.3188904000000000 Se
   0.0741103800000000    0.9632696470000000    0.7035592100000000 Se
   0.2048033500000000    0.6880881370000000    0.9571570300000000 Se
   0.5124957800000000    0.8034727770000000    0.7263880100000000 Se
   0.5894190100000000    0.9573191970000000    0.4186950400000000 Se
   0.5872685300000000    0.8277545070000000    0.6503102300000000 Se
   0.9262142100000000    0.5922316870000000    0.5187710600000000 Se
   0.7940330300000000    0.7034432970000000    0.5965802700000000 Se
   0.9227520000000000    0.7906526770000000    0.0853619200000000 Se
   0.6638537700000000    0.9760902270000000    0.3445849500000000 Se
   0.5672404599999999    0.5409494470000000    0.9546683600000000 Se
   0.8702493300000000    0.7204028470000000    0.5240378999999999 Se
   0.3048795600000000    0.9248078170000000    0.7804829800000000 Se
   0.8714699900000000    0.8547551870000000    0.2904899800000000 Se
   0.6698043000000000    0.9127448270000000    0.5444118200000000 Se
   0.8433092700000000    0.4404663270000000    0.8231789500000000 Se
   0.7701852300000001    0.3428394170000000    0.9379404099999999 Se
   0.8236502200000000    0.2204372370000000    0.9290271000000000 Se
   0.2304448000000000    0.9060367870000000    0.8545930800000000 Se
   0.5100079199999999    0.6683973670000000    0.9599695400000000 Se
   0.7866197200000000    0.5655465870000000    0.8316794600000000 Se
   0.0800604300000000    0.8999240270000000    0.9033866400000000 Se
   0.7176237500000000    0.5470627970000000    0.9058749900000000 Se
   0.9971869200000000    0.8094235170000000    0.0112512200000000 Se
   0.5928810700000000    0.7588983969999999    0.8521047899999999 Se
   0.9459047500000000    0.8735262170000000    0.2163798800000000 Se
   0.8749322000000000    0.6563341970000000    0.7238991100000000 Se
   0.9518552800000000    0.8101808170000000    0.4162067600000000 Se
   0.8201879800000000    0.9188577070000000    0.4956180300000000 Se
   0.9740345800000000    0.2265499970000000    0.8802335400000000 Se
   0.7432647400000000    0.7650112770000000    0.8033110000000000 Se
   0.3108297100000000    0.8614628970000000    0.9803095100000000 Se
   0.9996755800000000    0.4444984770000000    0.7776695500000000 Se
   0.5356485300000000    0.8863463170000000    0.8574059700000000 Se
   0.8224311800000000    0.7798653570000000    0.7324240400000001 Se
   0.4612137600000000    0.8675752870000000    0.9315160600000000 Se
   0.8946227400000000    0.9376287370000000    0.4215079400000000 Se
   0.9483931400000000    0.0086013470000000    0.9827974900000001 Se
   0.6185221300000000    0.9768475370000000    0.7495404900000000 Se
   0.9005732700000000    0.8742833370000000    0.6213348100000000 Se
   0.2535971700000000    0.9889108170000001    0.9856106900000000 Se
   0.7689058100000000    0.9829604170000000    0.7007466999999999 Se
   0.8236500300000000    0.7204369070000000    0.9290277800000000 Se
   0.9483931000000000    0.5086008270000000    0.9827975600000000 Se
   0.7664174900000000    0.8478848270000000    0.9343289600000000 Se
   0.9740344000000000    0.7265496670000000    0.8802342200000000 Se
   0.8492911000000000    0.9383860469999999    0.8264634800000000 Se
   0.9996754700000000    0.9444988070000000    0.7776699200000000 Se
