Se235
1.0
  19.5490800000000000    3.7622220000000000   -4.9635699999999998
   8.6884800000000002   15.0488879999999998    9.9271399999999996
   2.1721200000000001   -3.7622220000000000   19.8542799999999993
Se
235
direct
   0.6663418570000000    0.1111654600000000    0.1110027220000000 Se
   0.0544199400000000    0.1819752030000000    0.0059506630000000 Se
   0.2023148500000000    0.0530134380000000    0.1907389100000000 Se
   0.1278800880000000    0.0342424080000000    0.2648490080000000 Se
   0.0031377930000000    0.2460779600000000    0.2110787280000000 Se
   0.2851885250000000    0.1435141930000000    0.0828732960000000 Se
   0.1535212200000000    0.2521910820000000    0.1622845700000000 Se
   0.2279559850000000    0.2709621120000000    0.0881744730000000 Se
   0.2339065100000000    0.2076167100000000    0.2880013500000000 Se
   0.1510335970000000    0.1171153780000000    0.3958670600000000 Se
   0.4355732730000000    0.1496264700000000    0.0340800900000000 Se
   0.0287785370000000    0.4640266860000000    0.1085143700000000 Se
   0.1766739700000000    0.3350646300000000    0.2933025300000000 Se
   0.0765988330000000    0.0983443480000000    0.4699771570000000 Se
   0.1022392080000000    0.3162936000000000    0.3674126250000000 Se
   0.3842908780000000    0.2137294720000000    0.2392077900000000 Se
   0.1791626700000000    0.4701397340000000    0.0597206250000000 Se
   0.4330845080000000    0.0145518300000000    0.2676621300000000 Se
   0.2595481930000000    0.4255650760000000    0.1854375880000000 Se
   0.4587256420000000    0.2325005020000000    0.1650976920000000 Se
   0.5159581820000000    0.1050525830000000    0.1597965150000000 Se
   0.1826243430000000    0.2717194200000000    0.4931300200000000 Se
   0.1278808900000000    0.5342419660000000    0.2648488620000000 Se
   0.4099318700000000    0.4316779540000000    0.1366437950000000 Se
   0.3818025600000000    0.0786538840000000    0.4727900500000000 Se
   0.4646761680000000    0.1691551000000000    0.3649245700000000 Se
   0.1569833630000000    0.0537705530000000    0.5956938429999999 Se
   0.2023156540000000    0.5530129960000000    0.1907387660000000 Se
   0.3330088650000000    0.2778319900000000    0.4443358440000000 Se
   0.4074436280000000    0.2966030200000000    0.3702257470000000 Se
   0.3073677970000000    0.0598828540000000    0.5469001449999999 Se
   0.5393146200000000    0.3239934480000000    0.0532121520000000 Se
   0.0997514300000000    0.1812180880000000    0.6009957300000000 Se
   0.1253918040000000    0.3991673400000000    0.4984312000000000 Se
   0.2082660260000000    0.4896677860000000    0.3905662600000000 Se
   0.4843666320000000    0.4504489840000000    0.0625337000000000 Se
   0.4903171580000000    0.3871035820000000    0.2623605760000000 Se
   0.0544198300000000    0.6819755300000000    0.0059510400000000 Se
   0.0509570400000000    0.3803963100000000    0.5725412950000000 Se
   0.0235171660000000    0.1624148330000000    0.6750089680000000 Se
   0.3503982200000000    0.4995242140000000    0.3346064450000000 Se
   0.2851891840000000    0.6435135580000000    0.0828735950000000 Se
   0.6150598430000001    0.1752679780000000    0.3161307770000000 Se
   0.4277394850000000    0.5162939220000000    0.2631917120000000 Se
   0.4133940000000000    0.2332578100000000    0.5700532400000000 Se
   0.1510334860000000    0.6171157050000000    0.3958674360000000 Se
   0.7407770000000000    0.1299360070000000    0.0368929800000000 Se
   0.6894946070000000    0.1940390080000000    0.2420206800000000 Se
   0.0765987230000000    0.5983446750000000    0.4699775330000000 Se
   0.3561614600000000    0.3607057300000000    0.5753544180000000 Se
   0.3305203940000000    0.1427565930000000    0.6779187200000000 Se
   0.6968344330000000    0.3255161560000000    0.0086240800000000 Se
   0.0031371450000000    0.7460782120000000    0.2110782580000000 Se
   0.3877530200000000    0.0153089440000000    0.6726170620000000 Se
   0.4246991900000000    0.4621755980000000    0.4597782940000000 Se
   0.6407008330000000    0.3932164600000000    0.2135667840000000 Se
   0.4355726240000000    0.6496267200000000    0.0340796200000000 Se
   0.1313423300000000    0.3358219360000000    0.6982580760000000 Se
   0.7467270029999999    0.0665908970000000    0.2367199470000000 Se
   0.2817266970000000    0.3419347000000000    0.6494645140000000 Se
   0.1487584050000000    0.7581892980000000    0.1511973260000000 Se
   0.2264861280000000    0.7103541330000001    0.2795791300000000 Se
   0.7980087820000000    0.0024886650000000    0.0315917100000000 Se
   0.5596963570000000    0.2441076200000000    0.5151846540000000 Se
   0.2560856300000000    0.1239855630000000    0.7520288160000000 Se
   0.2297894870000000    0.7700111530000000    0.0831522300000000 Se
   0.5137217360000000    0.6058611900000000    0.1577805920000000 Se
   0.1057019550000000    0.1178726850000000    0.8008226080000000 Se
   0.6364715450000000    0.2592388480000000    0.4428546500000000 Se
   0.5381366950000001    0.0214218220000000    0.6238232700000000 Se
   0.6125714600000000    0.0401928520000000    0.5497131730000000 Se
   0.2799572300000000    0.5656694260000000    0.5349013400000000 Se
   0.3529731550000000    0.5900141700000000    0.4608075760000000 Se
   0.1569840120000000    0.5537703030000000    0.5956943139999999 Se
   0.7723681360000000    0.2845395700000000    0.1341555100000000 Se
   0.6954451320000000    0.1306936060000000    0.4418475580000000 Se
   0.7151355970000000    0.4119874900000000    0.1394566870000000 Se
   0.3801557500000000    0.7151700900000000    0.2355734820000000 Se
   0.0484694150000000    0.2453206050000000    0.8061237860000000 Se
   0.0741097900000000    0.4632698560000000    0.7035592540000000 Se
   0.5892650240000000    0.4545745370000000    0.4172867900000000 Se
   0.7210861230000000    0.3486420880000000    0.3392835640000000 Se
   0.4559094450000000    0.7334893360000000    0.1626346860000000 Se
   0.6609956219999999    0.4770712540000000    0.3420061980000000 Se
   0.4590805880000000    0.6762294970000000    0.3589951660000000 Se
   0.0982969200000000    0.8166128820000000    0.3632881980000000 Se
   0.1719586240000000    0.8360862999999999    0.2882013280000000 Se
   0.3621119860000000    0.2973603270000000    0.7751812950000000 Se
   0.0228280670000000    0.0273722660000000    0.9086874360000000 Se
   0.6663425160000001    0.6111648270000000    0.1110030200000000 Se
   0.3644313750000000    0.5147080820000000    0.6613347330000000 Se
   0.0997514730000000    0.6812182220000000    0.6009954900000000 Se
   0.8971108200000000    0.0727039670000000    0.1879257100000000 Se
   0.6415716550000000    0.1943477200000000    0.6427075000000000 Se
   0.1797483560000000    0.7712796159999999    0.4891257970000000 Se
   0.5865412500000000    0.3175697360000000    0.6539961640000000 Se
   0.5113071060000000    0.2981612230000000    0.7272560370000000 Se
   0.3048794470000000    0.4248082460000000    0.7804824730000000 Se
   0.8458288080000000    0.1368064840000000    0.3930537650000000 Se
   0.3364709200000000    0.0794111900000000    0.8777455960000000 Se
   0.7980095840000000    0.5024882230000000    0.0315915640000000 Se
   0.5177084130000000    0.5651060400000000    0.5536955000000000 Se
   0.0253162640000000    0.6624470649999999    0.6751057230000000 Se
   0.5612900500000000    0.1042949840000000    0.7548419380000000 Se
   0.2792383800000000    0.2068591100000000    0.8830467740000000 Se
   0.6761893760000000    0.3969849450000000    0.5442552000000001 Se
   0.3274400950000000    0.7856047460000000    0.4361431000000000 Se
   0.4868552870000000    0.0855239540000000    0.8289520339999999 Se
   0.7467278050000000    0.5665904550000000    0.2367198020000000 Se
   0.6162536550000000    0.6800186550000000    0.3127492940000000 Se
   0.4019637730000000    0.8048395400000000    0.3624112980000000 Se
   0.0287784260000000    0.9640270130000000    0.1085147450000000 Se
   0.9227525040000000    0.2906523340000000    0.0853619470000000 Se
   0.7407770450000000    0.6299361420000000    0.0368927420000000 Se
   0.2304446830000000    0.4060372160000000    0.8545925700000000 Se
   0.2595473900000000    0.9255655200000000    0.1854377330000000 Se
   0.3239359180000000    0.6369495320000000    0.6733012120000000 Se
   0.9715455850000000    0.0914749970000000    0.1138156140000000 Se
   0.8714704900000000    0.3547548500000000    0.2904900030000000 Se
   0.9202635700000000    0.1555775140000000    0.3189436700000000 Se
   0.5415992150000000    0.8230012000000000    0.0572322820000000 Se
   0.1791624820000000    0.9701394070000000    0.0597213080000000 Se
   0.6378546859999999    0.5245717270000000    0.5461185680000000 Se
   0.0800603160000000    0.3999244540000000    0.9033861300000000 Se
   0.5409521100000000    0.4814103700000000    0.6847918360000000 Se
   0.2048036160000000    0.1880880800000000    0.9571568700000000 Se
   0.2492590970000000    0.6244912580000000    0.7486759970000000 Se
   0.6871214800000000    0.7002308820000001    0.2351427500000000 Se
   0.7947023500000000    0.1925035500000000    0.5999119000000001 Se
   0.4092731400000000    0.7401817230000000    0.5618576020000000 Se
   0.1057019980000000    0.6178728200000000    0.8008223700000000 Se
   0.4099319120000000    0.9316780900000000    0.1366435560000000 Se
   0.9774966600000000    0.0281292880000000    0.3136431660000000 Se
   0.1254607750000000    0.8986589140000000    0.4948306780000000 Se
   0.8679438020000000    0.2149861300000000    0.5252411980000000 Se
   0.9900786640000000    0.3106782600000000    0.0097415200000000 Se
   0.9459052540000000    0.3735258800000000    0.2163799060000000 Se
   0.8174711420000000    0.4197093320000000    0.4909539700000000 Se
   0.7001268400000000    0.6392706180000000    0.4348555820000000 Se
   0.4903170480000000    0.8871039100000000    0.2623609520000000 Se
   0.0484747770000000    0.8824335100000000    0.5665614930000000 Se
   0.8433404240000000    0.0017313580000000    0.6266361620000001 Se
   0.0228277760000000    0.5273723729999999    0.9086873100000000 Se
   0.5645827520000000    0.7425698180000000    0.5144412950000000 Se
   0.9278741550000000    0.0875971540000000    0.5204502720000000 Se
   0.4843666760000000    0.9504491200000000    0.0625334600000000 Se
   0.5923558120000000    0.2525961200000000    0.8530053800000000 Se
   0.8907741620000000    0.4401835500000000    0.4162596250000000 Se
   0.5345532500000000    0.3811910400000000    0.8564056340000000 Se
   0.6919832700000000    0.8291135940000000    0.0084388450000000 Se
   0.8971114800000000    0.5727033330000000    0.1879260100000000 Se
   0.9489449700000000    0.3107323520000000    0.4139605060000000 Se
   0.2082653770000000    0.9896680360000000    0.3905657880000000 Se
   0.3108299730000000    0.3614628440000000    0.9803093500000000 Se
   0.6394646800000000    0.7653879940000000    0.4412740370000000 Se
   0.1287382100000000    0.8345503800000000    0.6934682680000001 Se
   0.3517131370000000    0.8638360170000000    0.5723190430000000 Se
   0.2799483900000000    0.8395673850000001    0.6484970640000000 Se
   0.4573195720000000    0.3683908950000000    0.9279993220000000 Se
   0.0484694600000000    0.7453207400000000    0.8061235470000000 Se
   0.3312330980000000    0.5809545380000000    0.8734976300000000 Se
   0.5100080370000000    0.1683975000000000    0.9599699930000000 Se
   0.6310321200000000    0.4879832600000000    0.7613523040000000 Se
   0.7723681800000000    0.7845397060000000    0.1341552700000000 Se
   0.5672398170000000    0.0409501600000000    0.9546687200000000 Se
   0.3586497450000000    0.9957808000000000    0.3417722260000000 Se
   0.6407008770000000    0.8932165949999999    0.2135665440000000 Se
   0.5535239120000000    0.6222377180000001    0.7497147300000000 Se
   0.4842140300000000    0.5902172100000000    0.8247958720000000 Se
   0.2535974330000000    0.4889107640000000    0.9856105280000000 Se
   0.7456007030000000    0.2625200970000000    0.8064504100000000 Se
   0.8458294669999999    0.6368058500000000    0.3930540640000000 Se
   0.8161765280000000    0.2811520360000000    0.7282809330000000 Se
   0.9715462440000000    0.5914743630000000    0.1138159130000000 Se
   0.7665860580000000    0.4840858700000000    0.6974895640000000 Se
   0.6396455000000000    0.6997062360000000    0.6412303760000000 Se
   0.8739492830000000    0.1523414130000000    0.7243070840000000 Se
   0.4390350340000000    0.9512064270000000    0.4674890070000000 Se
   0.7920584100000000    0.0658338750000000    0.8317642170000000 Se
   0.8973553200000000    0.3745148350000000    0.6171157400000000 Se
   0.9774967700000000    0.5281289600000000    0.3136427900000000 Se
   0.7176236459999999    0.0470628450000000    0.9058743130000000 Se
   0.8394102700000000    0.5031242370000000    0.6208534700000000 Se
   0.7210860120000000    0.8486424150000000    0.3392839400000000 Se
   0.2792384230000000    0.7068592460000001    0.8830465350000000 Se
   0.7151356400000000    0.9119876250000000    0.1394564480000000 Se
   0.3621119530000000    0.7973598079999999    0.7751813640000000 Se
   0.9202642300000000    0.6555768800000000    0.3189439680000000 Se
   0.0741104500000000    0.9632692220000000    0.7035595529999999 Se
   0.2048036600000000    0.6880882160000000    0.9571566300000000 Se
   0.5045949250000000    0.8148248200000000    0.7171479700000000 Se
   0.5894187100000000    0.9573193050000000    0.4186952150000000 Se
   0.5819732900000000    0.8285370399999999    0.6451905170000000 Se
   0.9262146020000001    0.5922316700000000    0.5187714600000000 Se
   0.7945473000000000    0.7009085600000000    0.5981827350000000 Se
   0.9227518550000000    0.7906525840000000    0.0853614770000000 Se
   0.6638534730000000    0.9760903350000000    0.3445851180000000 Se
   0.5645169060000000    0.5434661720000000    0.9505318740000001 Se
   0.8689820630000000    0.7196795900000000    0.5240726380000000 Se
   0.3048794140000000    0.9248077280000000    0.7804825399999999 Se
   0.8714698400000001    0.8547551000000000    0.2904895320000000 Se
   0.6698040000000000    0.9127449330000000    0.5444119960000000 Se
   0.8452515779999999    0.4399002100000000    0.8243568920000000 Se
   0.2304446500000000    0.9060366980000000    0.8545926380000000 Se
   0.8304072230000000    0.2127211750000000    0.9329976100000000 Se
   0.7783886400000000    0.3375456700000000    0.9420383670000000 Se
   0.5100073880000000    0.6683977500000000    0.9599695230000000 Se
   0.7147300020000000    0.5487795330000000    0.9034148960000000 Se
   0.7881288640000000    0.5683891040000000    0.8283137880000000 Se
   0.0800608200000000    0.8999240120000001    0.9033870460000000 Se
   0.5869349200000000    0.7660600300000000    0.8438595050000000 Se
   0.9971870000000000    0.8094231300000000    0.0112517370000000 Se
   0.9459046050000000    0.8735261300000000    0.2163794360000000 Se
   0.8749325880000000    0.6563341870000000    0.7238995160000000 Se
   0.9518549770000000    0.8101809200000000    0.4162069300000000 Se
   0.9690953400000000    0.2290300530000000    0.8766631650000000 Se
   0.8201876740000000    0.9188578100000000    0.4956182030000000 Se
   0.7432652850000000    0.7650110770000000    0.8033107900000001 Se
   0.3108297850000000    0.8614625180000000    0.9803100340000001 Se
   0.9996752730000000    0.4444985830000000    0.7776697160000000 Se
   0.5356490699999999    0.8863461180000000    0.8574057600000000 Se
   0.8177000500000000    0.7837821070000000    0.7292006930000000 Se
   0.4612143070000000    0.8675750880000000    0.9315158569999999 Se
   0.8946224380000000    0.9376288400000000    0.4215081060000000 Se
   0.9483933030000000    0.0086012360000000    0.9827975320000000 Se
   0.6185219850000000    0.9768474500000000    0.7495400500000000 Se
   0.9005729630000000    0.8742834380000000    0.6213349840000000 Se
   0.2535972460000000    0.9889104370000000    0.9856112120000000 Se
   0.7689056600000000    0.9829603280000000    0.7007462580000000 Se
   0.8236505750000001    0.7204367050000000    0.9290275700000000 Se
   0.9483932600000000    0.5086011000000000    0.9827977700000000 Se
   0.7664180350000001    0.8478846240000000    0.9343287500000000 Se
   0.9740342500000000    0.7265495830000001    0.8802337780000000 Se
   0.8492909500000000    0.9383859560000000    0.8264630400000000 Se
   0.9996753170000000    0.9444987180000000    0.7776694770000000 Se
