Se235
1.0
  19.5490800000000000    3.7622220000000000   -4.9635699999999998
   8.6884800000000002   15.0488879999999998    9.9271399999999996
   2.1721200000000001   -3.7622220000000000   19.8542799999999993
Se
235
direct
   0.6663421560000000    0.1111650580000000    0.1110024970000000 Se
   0.6660182660000000    0.1680217180000000    0.6659816870000000 Se
   0.0544197060000000    0.1819754780000000    0.0059506870000000 Se
   0.2023151360000000    0.0530134180000000    0.1907388470000000 Se
   0.1278803760000000    0.0342423880000000    0.2648489470000000 Se
   0.0031376960000000    0.2460779980000000    0.2110787470000000 Se
   0.2851886660000000    0.1435139880000000    0.0828736770000000 Se
   0.1535213660000000    0.2521908780000000    0.1622849570000000 Se
   0.2279561260000000    0.2709619080000000    0.0881748570000000 Se
   0.2339066560000000    0.2076164980000000    0.2880017370000000 Se
   0.1510331260000000    0.1171159380000000    0.3958669070000000 Se
   0.4355731860000000    0.1496265580000000    0.0340795070000000 Se
   0.0287786860000000    0.4640264780000000    0.1085147470000000 Se
   0.1766741160000000    0.3350644180000000    0.2933029070000000 Se
   0.0765983660000000    0.0983449080000000    0.4699769970000000 Se
   0.1022393560000000    0.3162933880000000    0.3674130070000000 Se
   0.3836974560000000    0.2145084180000000    0.2395246670000000 Se
   0.1791630460000000    0.4701392380000000    0.0597211870000000 Se
   0.4330841060000000    0.0145519280000000    0.2676618370000000 Se
   0.2518670660000000    0.4313460880000000    0.1813549170000000 Se
   0.4587257860000000    0.2325002980000000    0.1650980770000000 Se
   0.5159583260000000    0.1050523780000000    0.1597968970000000 Se
   0.1826246460000000    0.2717190180000000    0.4931297870000000 Se
   0.1278810360000000    0.5342417580000000    0.2648492470000000 Se
   0.4100252960000000    0.4330419780000000    0.1360843370000000 Se
   0.3818020860000000    0.0786544480000000    0.4727898970000000 Se
   0.4653956160000000    0.1675876080000000    0.3659249570000000 Se
   0.3293043560000000    0.2744144780000000    0.4451390970000000 Se
   0.1569836560000000    0.0537705380000000    0.5956937770000000 Se
   0.1870345960000000    0.5614511780000000    0.1810537570000000 Se
   0.4045054460000000    0.2937073080000000    0.3721445970000000 Se
   0.3073673260000000    0.0598834180000000    0.5468999870000000 Se
   0.5415993160000000    0.3230008580000000    0.0572329070000000 Se
   0.0997511160000000    0.1812184580000000    0.6009949570000001 Se
   0.1253921060000000    0.3991669380000000    0.4984309670000000 Se
   0.2028649860000000    0.4923376180000000    0.3844718970000000 Se
   0.4843667760000000    0.4504487780000000    0.0625340770000000 Se
   0.4907878360000000    0.3901981280000000    0.2599816670000000 Se
   0.0544201360000000    0.6819751280000000    0.0059507970000000 Se
   0.0509573360000000    0.3803959080000000    0.5725410670000000 Se
   0.0253163460000000    0.1624474280000000    0.6751050570000000 Se
   0.3472128460000000    0.5199983280000000    0.3104528870000000 Se
   0.2852199560000000    0.6436945480000000    0.0815702970000000 Se
   0.6170844660000000    0.1726439880000000    0.3180172370000000 Se
   0.4406344860000000    0.5210080680000000    0.2584367070000000 Se
   0.4240491860000000    0.4140001080000000    0.4399879970000000 Se
   0.4104550460000000    0.2297163580000000    0.5704804570000001 Se
   0.1489732460000000    0.6155205580000001    0.3959049570000000 Se
   0.7407769160000000    0.1299360880000000    0.0368923970000000 Se
   0.6894947560000000    0.1940387980000000    0.2420210670000000 Se
   0.3526550760000000    0.3584983380000000    0.5740036270000000 Se
   0.0765990260000000    0.5983442780000000    0.4699772970000000 Se
   0.6919827560000000    0.3291140180000000    0.0084389270000000 Se
   0.3305200760000000    0.1427569580000000    0.6779179470000000 Se
   0.0031377360000000    0.7460781280000000    0.2110785070000000 Se
   0.3877526160000000    0.0153090380000000    0.6726167669999999 Se
   0.6407009760000000    0.3932162480000000    0.2135671670000000 Se
   0.1544715060000000    0.7506456680000000    0.1615356770000000 Se
   0.1313424760000000    0.3358217280000000    0.6982584570000000 Se
   0.7467272960000000    0.0665908780000000    0.2367198870000000 Se
   0.4394516560000000    0.6511254580000000    0.0353791270000000 Se
   0.2811040360000000    0.3412948980000000    0.6513748470000000 Se
   0.7980094560000000    0.0024881780000000    0.0315912170000000 Se
   0.2333513660000000    0.7082819380000001    0.2875456270000000 Se
   0.2560853160000000    0.1239859280000000    0.7520280470000000 Se
   0.2290613560000000    0.7706273480000000    0.0877102670000000 Se
   0.1057014860000000    0.1178732480000000    0.8008224470000000 Se
   0.5223759960000000    0.6073277080000000    0.1597532370000000 Se
   0.5808446560000000    0.2130375880000000    0.5423461670000000 Se
   0.5381369860000000    0.0214218080000000    0.6238232070000000 Se
   0.6398783660000000    0.2483713880000000    0.4562266370000000 Se
   0.1522509460000000    0.5494986780000000    0.5970600370000000 Se
   0.6160495459999999    0.0343117780000000    0.5505302470000000 Se
   0.4642467060000000    0.4744120380000000    0.5032689670000000 Se
   0.7723682860000000    0.2845393580000000    0.1341558870000000 Se
   0.7151357460000000    0.4119872780000000    0.1394570670000000 Se
   0.6985782160000000    0.1250254080000000    0.4447597270000000 Se
   0.2959031160000000    0.5587007480000000    0.5521598170000001 Se
   0.3544640560000000    0.6030368580000000    0.4693915470000000 Se
   0.0484689460000000    0.2453211680000000    0.8061236270000000 Se
   0.0741099360000000    0.4632696480000000    0.7035596270000000 Se
   0.3864349860000000    0.7148774380000000    0.2392326470000000 Se
   0.5917032960000000    0.4610176380000000    0.4190215770000000 Se
   0.7192972360000000    0.3469198180000000    0.3393054770000000 Se
   0.4615598360000000    0.7343941080000000    0.1654619370000000 Se
   0.6655046760000000    0.4754148480000000    0.3435947070000000 Se
   0.4619931360000000    0.6762249180000000    0.3640400570000000 Se
   0.1022852360000000    0.8153293579999999    0.3691070470000000 Se
   0.1776012060000000    0.8343730880000000    0.2958854770000000 Se
   0.3638600960000000    0.2990215880000000    0.7753745869999999 Se
   0.0228285760000000    0.0273719080000000    0.9086881570000001 Se
   0.0968038260000000    0.6782681680000000    0.6005532870000000 Se
   0.6663420460000000    0.6111653880000000    0.1110028670000000 Se
   0.8971111160000000    0.0727035680000000    0.1879254870000000 Se
   0.3845233460000000    0.5155260780000001    0.6723447270000000 Se
   0.1823851160000000    0.7719683979999999    0.4944059570000000 Se
   0.3038549360000000    0.4264355780000000    0.7806244970000000 Se
   0.8450620560000000    0.1356514380000000    0.3961156370000000 Se
   0.3364704460000000    0.0794117480000000    0.8777454370000000 Se
   0.7980093460000000    0.5024884980000000    0.0315915870000000 Se
   0.5242410360000000    0.2967156880000000    0.7292458469999999 Se
   0.0253168560000000    0.6624469780000000    0.6751059670000000 Se
   0.5636848759999999    0.1034821880000000    0.7542121170000000 Se
   0.2792379160000000    0.2068596680000000    0.8830466070000000 Se
   0.6111292060000000    0.2977552280000000    0.6675680470000001 Se
   0.6734876460000000    0.4151805780000000    0.5449308970000000 Se
   0.7449871660000000    0.5629722080000000    0.2333781870000000 Se
   0.3281530760000000    0.7940082580000000    0.4368096970000000 Se
   0.4868549660000000    0.0855243180000000    0.8289512670000000 Se
   0.6171612460000000    0.6727774680000000    0.3165483370000000 Se
   0.0287787260000000    0.9640266080000000    0.1085145170000000 Se
   0.9227528060000000    0.2906519380000000    0.0853617170000000 Se
   0.7407768060000000    0.6299364180000000    0.0368927670000000 Se
   0.2304448260000000    0.4060370080000000    0.8545929470000000 Se
   0.4051882460000000    0.8070614980000000    0.3648991970000000 Se
   0.5416417560000000    0.5228098180000000    0.6229005070000000 Se
   0.2595476860000000    0.9255651180000000    0.1854374970000000 Se
   0.9715461760000000    0.0914749180000000    0.1138158570000000 Se
   0.8714706360000000    0.3547546380000000    0.2904903870000000 Se
   0.9202637160000000    0.1555773080000000    0.3189440470000000 Se
   0.5415993560000000    0.8230009880000000    0.0572326670000000 Se
   0.6162653060000000    0.5430071580000000    0.5494573470000000 Se
   0.1791623960000000    0.9701394880000000    0.0597207170000000 Se
   0.3303731960000000    0.6424632680000000    0.6773034770000000 Se
   0.0800604660000000    0.3999242480000000    0.9033865070000000 Se
   0.2048031460000000    0.1880886380000000    0.9571567070000000 Se
   0.6894947960000000    0.6940389380000000    0.2420208270000000 Se
   0.2560858160000000    0.6239854880000000    0.7520289570000001 Se
   0.7941605560000000    0.1998456880000000    0.6000235269999999 Se
   0.1057021460000000    0.6178726080000000    0.8008227470000000 Se
   0.4106121960000000    0.7412406480000000    0.5645722570000000 Se
   0.4099320560000000    0.9316778780000000    0.1366439370000000 Se
   0.9774967060000000    0.0281295180000000    0.3136427370000000 Se
   0.8660790260000000    0.2223287980000000    0.5237951570000000 Se
   0.1264745660000000    0.8993301580000000    0.4995304370000000 Se
   0.8099532659999999    0.4232430780000000    0.4903451170000000 Se
   0.6973916360000000    0.6290096180000000    0.4421734770000000 Se
   0.9459053960000000    0.3735256680000000    0.2163802870000000 Se
   0.9971871660000000    0.3094233980000000    0.0112518670000000 Se
   0.4903173460000000    0.8871035080000000    0.2623607170000000 Se
   0.0507579760000000    0.8796421679999999    0.5720127070000000 Se
   0.8433407160000000    0.0017313380000000    0.6266360970000000 Se
   0.0228279260000000    0.5273721680000000    0.9086876870000000 Se
   0.5623966459999999    0.7426203280000000    0.5171838670000000 Se
   0.9260534760000000    0.0939561180000000    0.5201104870000000 Se
   0.4843668260000000    0.9504489080000000    0.0625338370000000 Se
   0.5979818660000000    0.2546059780000000    0.8566582170000000 Se
   0.6919828060000000    0.8291141580000000    0.0084386870000000 Se
   0.8971110060000000    0.5727038980000000    0.1879258570000000 Se
   0.8946233860000000    0.4376281880000000    0.4215083470000000 Se
   0.6195767660000000    0.4754558580000000    0.7502814170000000 Se
   0.2082656660000000    0.9896680180000000    0.3905657270000000 Se
   0.5378103660000000    0.3837790780000000    0.8593939770000000 Se
   0.9518559260000000    0.3101802680000000    0.4162071670000000 Se
   0.6382127860000000    0.7581414480000001    0.4471488770000000 Se
   0.3108301160000000    0.3614626380000000    0.9803097270000000 Se
   0.1313425160000000    0.8358218580000000    0.6982582170000000 Se
   0.3567830960000000    0.8658578380000000    0.5740237670000000 Se
   0.0484696060000000    0.7453205280000000    0.8061239270000000 Se
   0.5124516059999999    0.1674784780000000    0.9582935670000000 Se
   0.2817261960000000    0.8419347380000000    0.6494644170000000 Se
   0.4612137960000000    0.3675755080000000    0.9315159370000000 Se
   0.3364711060000000    0.5794111180000000    0.8777457370000000 Se
   0.7723683260000000    0.7845394980000000    0.1341556570000000 Se
   0.5672401060000000    0.0409501380000000    0.9546686570000000 Se
   0.3586493360000000    0.9957808980000000    0.3417719370000000 Se
   0.5611054860000000    0.6040373080000000    0.7540904570000000 Se
   0.6407010260000000    0.8932163880000000    0.2135669270000000 Se
   0.4861317460000000    0.5857929380000000    0.8275904570000000 Se
   0.2535975760000000    0.4889105580000000    0.9856109070000000 Se
   0.8458289960000001    0.6368064080000000    0.3930539070000000 Se
   0.7474886860000000    0.2613311780000000    0.8093066470000000 Se
   0.8191974660000000    0.2816399380000000    0.7319593170000001 Se
   0.9715461460000000    0.5914743980000000    0.1138159270000000 Se
   0.7660754060000000    0.4807687680000000    0.7003787370000000 Se
   0.6428483659999999    0.6945925080000001    0.6443134770000000 Se
   0.4390351760000000    0.9512062180000000    0.4674893870000000 Se
   0.8756067460000000    0.1544677680000000    0.7258821270000000 Se
   0.7920586960000000    0.0658338580000000    0.8317641569999999 Se
   0.9774966660000000    0.5281289980000000    0.3136428070000000 Se
   0.9005739060000000    0.3742827880000000    0.6213352170000001 Se
   0.7176239360000000    0.0470628280000000    0.9058742470000000 Se
   0.7210863159999999    0.8486420180000001    0.3392837070000000 Se
   0.8433413760000000    0.5017307080000000    0.6266363970000000 Se
   0.2792385660000000    0.7068590380000001    0.8830469070000000 Se
   0.7151357860000001    0.9119874180000000    0.1394568270000000 Se
   0.3621114860000000    0.7973603680000000    0.7751811970000000 Se
   0.9202637560000000    0.6555774380000000    0.3189438070000000 Se
   0.0741099760000000    0.9632697780000000    0.7035593870000000 Se
   0.5102960360000000    0.8068826580000000    0.7202255470000000 Se
   0.2048038060000000    0.6880880080000000    0.9571570069999999 Se
   0.5894190060000000    0.9573189080000000    0.4186949770000000 Se
   0.5869306160000000    0.8222441579999999    0.6522775470000000 Se
   0.9262142860000000    0.5922320380000000    0.5187706870000000 Se
   0.7945469860000000    0.7009089280000000    0.5981819670000000 Se
   0.9227519960000000    0.7906523780000000    0.0853618570000000 Se
   0.6638537760000000    0.9760899380000000    0.3445848870000000 Se
   0.5672400760000000    0.5409496180000000    0.9546687170000000 Se
   0.8689817460000000    0.7196799580000000    0.5240718670000000 Se
   0.3048789460000000    0.9248082880000000    0.7804823770000000 Se
   0.8714699860000000    0.8547548980000000    0.2904899170000000 Se
   0.6698041460000000    0.9127447180000000    0.5444123670000000 Se
   0.7619674560000000    0.3528222880000000    0.9346050270000000 Se
   0.8492917460000000    0.4383854980000000    0.8264638870000000 Se
   0.8263624760000000    0.2232376180000000    0.9331041770000000 Se
   0.2304441860000000    0.9060372580000000    0.8545924770000000 Se
   0.7123928960000000    0.5475730780000000    0.9032661070000000 Se
   0.5100075360000000    0.6683975380000000    0.9599698970000000 Se
   0.0800605060000000    0.8999243780000000    0.9033862670000000 Se
   0.7920592060000000    0.5658334180000000    0.8317650670000000 Se
   0.9971872060000000    0.8094235279999999    0.0112516270000000 Se
   0.5928811460000000    0.7588987580000000    0.8521044169999999 Se
   0.9459047460000000    0.8735259280000000    0.2163798170000000 Se
   0.8749321160000000    0.6563347480000000    0.7238993570000000 Se
   0.9518552760000000    0.8101805180000000    0.4162066970000000 Se
   0.8201879760000000    0.9188574080000000    0.4956179670000000 Se
   0.9740341860000000    0.2265501380000000    0.8802337170000000 Se
   0.7432648160000001    0.7650116380000000    0.8033106270000000 Se
   0.3108294660000000    0.8614628880000000    0.9803092570000000 Se
   0.9996751760000000    0.4444986180000000    0.7776697270000000 Se
   0.5356486060000000    0.8863466780000000    0.8574055970000000 Se
   0.8176995760000000    0.7837826680000000    0.7292005270000000 Se
   0.4612138360000000    0.8675756480000000    0.9315156970000000 Se
   0.8946227360000000    0.9376284380000000    0.4215078770000000 Se
   0.9483928960000000    0.0086013380000000    0.9827972370000000 Se
   0.6185221359999999    0.9768472380000000    0.7495404270000000 Se
   0.9005731060000000    0.8742832280000000    0.6213353570000000 Se
   0.2535975360000000    0.9889104180000000    0.9856111470000000 Se
   0.7689058060000000    0.9829601180000000    0.7007466370000000 Se
   0.8236501060000000    0.7204372680000000    0.9290274070000000 Se
   0.9483934060000000    0.5086008880000000    0.9827981470000000 Se
   0.7664175660000000    0.8478851880000000    0.9343285870000000 Se
   0.9740348460000000    0.7265494980000000    0.8802340170000000 Se
   0.8492910960000000    0.9383857480000000    0.8264634170000000 Se
   0.9996752160000000    0.9444987480000000    0.7776694870000000 Se
