Se649
1.0
  26.0654399999999988    0.0000000000000000    0.0000000000000000
 -13.0327199999999994   22.5733320000000006    0.0000000000000000
   0.0000000000000000    0.0000000000000000   29.7814200000000007
Se
649
direct
   0.0372716000000000    0.0372716230000000    0.1111112320000000 Se
   0.1293952100000000    0.1666667030000000    0.1666667520000000 Se
   0.0372716000000000    0.0372716230000000    0.2777777820000000 Se
   0.2039382000000000    0.2039382030000000    0.1111112320000000 Se
   0.2960616800000000    0.1666667030000000    0.1666667520000000 Se
   0.2039382000000000    0.2039382030000000    0.2777777820000000 Se
   0.0372716000000000    0.0372716230000000    0.4444443220000000 Se
   0.1293952200000000    0.3333331930000000    0.3333332920000000 Se
   0.4627286600000000    0.1666667030000000    0.1666667520000000 Se
   0.2039382000000000    0.2039382030000000    0.4444443220000000 Se
   0.3706046800000000    0.3706046830000000    0.1111112320000000 Se
   0.0372716000000000    0.0372716230000000    0.6111113720000000 Se
   0.6293951300000000    0.1666667030000000    0.1666667520000000 Se
   0.2039382000000000    0.2039382030000000    0.6111113720000000 Se
   0.3662317100000000    0.3667024930000000    0.4454033820000000 Se
   0.1293952200000000    0.5000001730000000    0.4999998420000000 Se
   0.5372716600000000    0.5372716730000000    0.1111112320000000 Se
   0.0372716000000000    0.0372716230000000    0.7777779120000000 Se
   0.6293951400000000    0.3333331930000000    0.3333332920000000 Se
   0.3691401000000000    0.3693610030000000    0.6126738320000000 Se
   0.2039382000000000    0.2039382030000000    0.7777779120000000 Se
   0.7960617600000000    0.1666667030000000    0.1666667520000000 Se
   0.7960616100000000    0.3333331830000000    0.3333332920000000 Se
   0.3706046800000000    0.3706046830000000    0.7777779120000000 Se
   0.6269574200000000    0.5005230030000000    0.5000140020000000 Se
   0.0372716000000000    0.0372716230000000    0.9444444620000000 Se
   0.1293950700000000    0.6666666530000001    0.6666668820000000 Se
   0.2039382000000000    0.2039382030000000    0.9444444620000000 Se
   0.2960617000000000    0.6666666630000000    0.6666668820000000 Se
   0.9627287400000000    0.1666667030000000    0.1666667520000000 Se
   0.7039381400000000    0.7039381530000000    0.1111112320000000 Se
   0.1293950800000000    0.0000001230000000    0.9999997020000000 Se
   0.7960616200000000    0.4999996730000000    0.4999998420000000 Se
   0.9627287400000000    0.3333336830000000    0.3333332920000000 Se
   0.3706046800000000    0.3706046830000000    0.9444444620000000 Se
   0.5372716600000000    0.5372716730000000    0.7777779120000000 Se
   0.4627285300000000    0.0000001230000000    0.9999997020000000 Se
   0.7164717600000000    0.7166662029999999    0.4447359620000000 Se
   0.6293951600000000    0.0000001330000000    0.9999997020000000 Se
   0.1293950800000000    0.8333331430000001    0.8333334320000000 Se
   0.9627285900000000    0.5000001730000000    0.4999998420000000 Se
   0.5372716600000000    0.5372716730000000    0.9444444620000000 Se
   0.2960615500000000    0.8333331430000001    0.8333334320000000 Se
   0.8706046200000001    0.8706046430000000    0.1111112320000000 Se
   0.8706046200000001    0.8706046430000000    0.2777777820000000 Se
   0.7039381400000000    0.7039381530000000    0.7777779120000000 Se
   0.4627286800000000    0.8333336430000000    0.8333334320000000 Se
   0.8706046200000001    0.8706046430000000    0.4444443220000000 Se
   0.6293951500000000    0.8333331430000001    0.8333334320000000 Se
   0.9627286000000000    0.6666666630000000    0.6666668820000000 Se
   0.7039381400000000    0.7039381530000000    0.9444444620000000 Se
   0.8706046200000001    0.8706046430000000    0.6111113720000000 Se
   0.9627286100000000    0.0000001330000000    0.9999997020000000 Se
   0.7960616300000000    0.8333331430000001    0.8333334320000000 Se
   0.2960615600000000    0.9999996330000001    0.9999997020000000 Se
   0.8706046200000001    0.8706046430000000    0.7777779120000000 Se
   0.9627286000000000    0.8333336430000000    0.8333334320000000 Se
   0.8706046200000001    0.8706046430000000    0.9444444620000000 Se
   0.7960616300000000    0.9999996230000000    0.9999997020000000 Se
   0.0000002300000000    0.1293952030000000    0.0555552220000000 Se
   0.1293950800000000    0.0000001230000000    0.1666667520000000 Se
   0.1666667000000000    0.1293952030000000    0.0555552220000000 Se
   0.0372717300000000    0.2039382030000000    0.1111112320000000 Se
   0.2039380700000000    0.0372716230000000    0.1111112320000000 Se
   0.0000002300000000    0.1293952030000000    0.2222222620000000 Se
   0.0000002300000000    0.2960621830000000    0.0555552220000000 Se
   0.1666667000000000    0.1293952030000000    0.2222222620000000 Se
   0.1666667100000000    0.2960616930000000    0.0555552220000000 Se
   0.0372717300000000    0.2039382030000000    0.2777777820000000 Se
   0.2039380700000000    0.0372716230000000    0.2777777820000000 Se
   0.1293950800000000    0.0000001230000000    0.3333332920000000 Se
   0.3333331800000000    0.1293952130000000    0.0555552220000000 Se
   0.0000002300000000    0.2960621830000000    0.2222222620000000 Se
   0.0372717300000000    0.3706051830000000    0.1111112320000000 Se
   0.3706045500000000    0.0372711330000000    0.1111112320000000 Se
   0.1293952100000000    0.1666667030000000    0.3333332920000000 Se
   0.1293952200000000    0.3333331930000000    0.1666667520000000 Se
   0.1666667100000000    0.2960616930000000    0.2222222620000000 Se
   0.0000002300000000    0.1293952030000000    0.3888888120000000 Se
   0.3333331800000000    0.1293952130000000    0.2222222620000000 Se
   0.2039382100000000    0.3706046930000000    0.1111112320000000 Se
   0.3706046700000000    0.2039381930000000    0.1111112320000000 Se
   0.1666667000000000    0.1293952030000000    0.3888888120000000 Se
   0.3333331800000000    0.2960616930000000    0.0555552220000000 Se
   0.0372717300000000    0.3706051830000000    0.2777777820000000 Se
   0.3706045500000000    0.0372711330000000    0.2777777820000000 Se
   0.0000002400000000    0.4627286730000000    0.0555552220000000 Se
   0.2960616800000000    0.1666667030000000    0.3333332920000000 Se
   0.2960616900000000    0.3333331930000000    0.1666667520000000 Se
   0.0000002300000000    0.2960621830000000    0.3888888120000000 Se
   0.0372717300000000    0.2039382030000000    0.4444443220000000 Se
   0.2039380700000000    0.0372716230000000    0.4444443220000000 Se
   0.4627285300000000    0.0000001230000000    0.1666667520000000 Se
   0.1666667100000000    0.4627286730000000    0.0555552220000000 Se
   0.3333331800000000    0.2960616930000000    0.2222222620000000 Se
   0.3706046700000000    0.2039381930000000    0.2777777820000000 Se
   0.2072541000000000    0.3748795030000000    0.2804007220000000 Se
   0.0000002400000000    0.4627286730000000    0.2222222620000000 Se
   0.1666667100000000    0.2960616930000000    0.3888888120000000 Se
   0.1293950800000000    0.0000001230000000    0.4999998420000000 Se
   0.5000001500000000    0.1293952030000000    0.0555552220000000 Se
   0.3333331800000000    0.1293952130000000    0.3888888120000000 Se
   0.1666667100000000    0.4627286730000000    0.2222222620000000 Se
   0.1293952100000000    0.1666667030000000    0.4999998420000000 Se
   0.1293952200000000    0.5000001730000000    0.1666667520000000 Se
   0.0372717400000000    0.5372716730000000    0.1111112320000000 Se
   0.5372716800000000    0.0372716330000000    0.1111112320000000 Se
   0.2935878200000000    0.3316456430000000    0.3332065920000000 Se
   0.5000001500000000    0.1293952030000000    0.2222222620000000 Se
   0.4627285300000000    0.0000001230000000    0.3333332920000000 Se
   0.0000002300000000    0.1293952030000000    0.5555553519999999 Se
   0.3333331900000000    0.4627281830000000    0.0555552220000000 Se
   0.0372717300000000    0.3706051830000000    0.4444443220000000 Se
   0.3706045500000000    0.0372711330000000    0.4444443220000000 Se
   0.5000001600000000    0.2960621930000000    0.0555552220000000 Se
   0.2039382100000000    0.5372716730000000    0.1111112320000000 Se
   0.5372716500000000    0.2039382030000000    0.1111112320000000 Se
   0.3313287800000000    0.2937053630000000    0.3880592320000000 Se
   0.3687698300000000    0.3702510630000000    0.2782126420000000 Se
   0.4627286600000000    0.1666667030000000    0.3333332920000000 Se
   0.4627286600000000    0.3333336830000000    0.1666667520000000 Se
   0.1666667000000000    0.1293952030000000    0.5555553519999999 Se
   0.0000002400000000    0.4627286730000000    0.3888888120000000 Se
   0.2960616800000000    0.1666667030000000    0.4999998420000000 Se
   0.2960617000000000    0.4999996830000000    0.1666667520000000 Se
   0.0372717400000000    0.5372716730000000    0.2777777820000000 Se
   0.5372716800000000    0.0372716330000000    0.2777777820000000 Se
   0.3333331900000000    0.4627281830000000    0.2222222620000000 Se
   0.3706046700000000    0.2039381930000000    0.4444443220000000 Se
   0.1293952200000000    0.3333331930000000    0.4999998420000000 Se
   0.1293952200000000    0.5000001730000000    0.3333332920000000 Se
   0.2062910000000000    0.3737045830000000    0.4463924420000000 Se
   0.5000001600000000    0.2960621930000000    0.2222222620000000 Se
   0.1666667100000000    0.4627286730000000    0.3888888120000000 Se
   0.0000002300000000    0.2960621830000000    0.5555553519999999 Se
   0.0000000900000000    0.6293951630000000    0.0555552220000000 Se
   0.2039382100000000    0.5372716730000000    0.2777777820000000 Se
   0.5372716500000000    0.2039382030000000    0.2777777820000000 Se
   0.0372717300000000    0.2039382030000000    0.6111113720000000 Se
   0.2039380700000000    0.0372716230000000    0.6111113720000000 Se
   0.5000001500000000    0.1293952030000000    0.3888888120000000 Se
   0.6293951600000000    0.0000001330000000    0.1666667520000000 Se
   0.1666667100000000    0.2960616930000000    0.5555553519999999 Se
   0.1666667200000000    0.6293951630000000    0.0555552220000000 Se
   0.4637557900000000    0.3223944430000000    0.3345559920000000 Se
   0.3333331800000000    0.1293952130000000    0.5555553519999999 Se
   0.3706046900000000    0.5372711730000000    0.1111112320000000 Se
   0.5372716500000000    0.3706051830000000    0.1111112320000000 Se
   0.0000000900000000    0.6293951630000000    0.2222222620000000 Se
   0.2931809900000000    0.3303761430000000    0.5026691420000000 Se
   0.2860257700000000    0.5067005230000000    0.3311825120000000 Se
   0.1293950800000000    0.0000001230000000    0.6666668820000000 Se
   0.4627285300000000    0.0000001230000000    0.4999998420000000 Se
   0.6666667800000000    0.1293952030000000    0.0555552220000000 Se
   0.5000001600000000    0.4627286730000000    0.0555552220000000 Se
   0.1666667200000000    0.6293951630000000    0.2222222620000000 Se
   0.3259439600000000    0.4683264430000000    0.3867436120000000 Se
   0.0372717400000000    0.5372716730000000    0.4444443220000000 Se
   0.5372716800000000    0.0372716330000000    0.4444443220000000 Se
   0.5000001600000000    0.2960621930000000    0.3888888120000000 Se
   0.1293952100000000    0.1666667030000000    0.6666668820000000 Se
   0.1293950700000000    0.6666666530000001    0.1666667520000000 Se
   0.4627286600000000    0.1666667030000000    0.4999998420000000 Se
   0.4627286700000000    0.5000001730000000    0.1666667520000000 Se
   0.5389693800000001    0.3678459130000000    0.2802617820000000 Se
   0.3628056400000000    0.5449198230000000    0.2768342420000000 Se
   0.6293951600000000    0.0000001330000000    0.3333332920000000 Se
   0.3324352600000000    0.2941431230000000    0.5576653320000000 Se
   0.0372715900000000    0.7039381530000000    0.1111112320000000 Se
   0.7039381500000000    0.0372716230000000    0.1111112320000000 Se
   0.3333331900000000    0.6293951630000000    0.0555552220000000 Se
   0.6666667800000000    0.1293952030000000    0.2222222620000000 Se
   0.0372717300000000    0.3706051830000000    0.6111113720000000 Se
   0.3706045500000000    0.0372711330000000    0.6111113720000000 Se
   0.5000001600000000    0.4627286730000000    0.2222222620000000 Se
   0.0000002400000000    0.4627286730000000    0.5555553519999999 Se
   0.2039382100000000    0.5372716730000000    0.4444443220000000 Se
   0.5372716500000000    0.2039382030000000    0.4444443220000000 Se
   0.6293951300000000    0.1666667030000000    0.3333332920000000 Se
   0.6293951400000000    0.3333331930000000    0.1666667520000000 Se
   0.6666666300000000    0.2960616930000000    0.0555552220000000 Se
   0.0000002300000000    0.1293952030000000    0.7222224020000000 Se
   0.0000000900000000    0.6293951630000000    0.3888888120000000 Se
   0.2039382200000000    0.7039381630000000    0.1111112320000000 Se
   0.7039382800000000    0.2039382030000000    0.1111112320000000 Se
   0.1666667100000000    0.4627286730000000    0.5555553519999999 Se
   0.3706046700000000    0.2039381930000000    0.6111113720000000 Se
   0.3333331900000000    0.6293951630000000    0.2222222620000000 Se
   0.2041775100000000    0.3734138630000000    0.6142505120000000 Se
   0.2960616800000000    0.1666667030000000    0.6666668820000000 Se
   0.2960617000000000    0.6666666630000000    0.1666667520000000 Se
   0.4675668400000000    0.4466393030000000    0.3782720320000000 Se
   0.4478300000000000    0.5039407530000000    0.3279913520000000 Se
   0.1666667000000000    0.1293952030000000    0.7222224020000000 Se
   0.1293952200000000    0.3333331930000000    0.6666668820000000 Se
   0.1293950700000000    0.6666666530000001    0.3333332920000000 Se
   0.0372715900000000    0.7039381530000000    0.2777777820000000 Se
   0.7039381500000000    0.0372716230000000    0.2777777820000000 Se
   0.1666667200000000    0.6293951630000000    0.3888888120000000 Se
   0.5000001500000000    0.1293952030000000    0.5555553519999999 Se
   0.4682717600000000    0.3266349630000000    0.5028601820000000 Se
   0.6666666300000000    0.2960616930000000    0.2222222620000000 Se
   0.2884493000000000    0.5046855030000000    0.4992161420000000 Se
   0.0000002300000000    0.2960621830000000    0.7222224020000000 Se
   0.6666667800000000    0.1293952030000000    0.3888888120000000 Se
   0.2039382200000000    0.7039381630000000    0.2777777820000000 Se
   0.7039382800000000    0.2039382030000000    0.2777777820000000 Se
   0.5380179300000000    0.3649128630000000    0.4448220020000000 Se
   0.3651701100000000    0.5383608930000000    0.4445594420000000 Se
   0.3211739200000000    0.4639051030000000    0.5546070720000000 Se
   0.0000001000000000    0.7960621530000001    0.0555552220000000 Se
   0.1666667100000000    0.2960616930000000    0.7222224020000000 Se
   0.2960617000000000    0.6666666630000000    0.3333332920000000 Se
   0.5292048900000000    0.5350630230000000    0.2794457620000000 Se
   0.3706046900000000    0.7039381530000000    0.1111112320000000 Se
   0.7039381300000001    0.3706046830000000    0.1111112320000000 Se
   0.2955518900000000    0.3341043930000000    0.6685420220000000 Se
   0.6293951600000000    0.0000001330000000    0.4999998420000000 Se
   0.5000001600000000    0.2960621930000000    0.5555553519999999 Se
   0.0372717300000000    0.2039382030000000    0.7777779120000000 Se
   0.2039380700000000    0.0372716230000000    0.7777779120000000 Se
   0.5000001700000000    0.6293951630000000    0.0555552220000000 Se
   0.3333331800000000    0.1293952130000000    0.7222224020000000 Se
   0.4627285300000000    0.0000001230000000    0.6666668820000000 Se
   0.3332154200000000    0.6316557930000000    0.3885611720000000 Se
   0.6666666400000000    0.4627286830000000    0.0555552220000000 Se
   0.0372717400000000    0.5372716730000000    0.6111113720000000 Se
   0.5372716800000000    0.0372716330000000    0.6111113720000000 Se
   0.1666665700000000    0.7960616430000000    0.0555552220000000 Se
   0.6293951300000000    0.1666667030000000    0.4999998420000000 Se
   0.6293951400000000    0.5000001730000000    0.1666667520000000 Se
   0.4458074500000000    0.4677346530000000    0.5134304820000000 Se
   0.0000001000000000    0.7960621530000001    0.2222222620000000 Se
   0.6666666300000000    0.2960616930000000    0.3888888120000000 Se
   0.4627286600000000    0.1666667030000000    0.6666668820000000 Se
   0.4627286800000000    0.6666666630000000    0.1666667520000000 Se
   0.0372715900000000    0.7039381530000000    0.4444443220000000 Se
   0.7039381500000000    0.0372716230000000    0.4444443220000000 Se
   0.5000001700000000    0.6293951630000000    0.2222222620000000 Se
   0.2039382100000000    0.5372716730000000    0.6111113720000000 Se
   0.5372716500000000    0.2039382030000000    0.6111113720000000 Se
   0.0000000900000000    0.6293951630000000    0.5555553519999999 Se
   0.6666666400000000    0.4627286830000000    0.2222222620000000 Se
   0.7039381300000001    0.3706046830000000    0.2777777820000000 Se
   0.1666665700000000    0.7960616430000000    0.2222222620000000 Se
   0.1293950800000000    0.0000001230000000    0.8333334320000000 Se
   0.1293952200000000    0.5000001730000000    0.6666668820000000 Se
   0.1293950700000000    0.6666666530000001    0.4999998420000000 Se
   0.3736977100000000    0.7039445530000000    0.2760607820000000 Se
   0.8333332500000000    0.1293952030000000    0.0555552220000000 Se
   0.3351181600000000    0.2965677230000000    0.7224063820000000 Se
   0.1666667200000000    0.6293951630000000    0.5555553519999999 Se
   0.2039382200000000    0.7039381630000000    0.4444443220000000 Se
   0.7039382800000000    0.2039382030000000    0.4444443220000000 Se
   0.0000002400000000    0.4627286730000000    0.7222224020000000 Se
   0.1293952100000000    0.1666667030000000    0.8333334320000000 Se
   0.1293950800000000    0.8333331430000001    0.1666667520000000 Se
   0.5591252100000000    0.5164213230000000    0.4038900720000000 Se
   0.0372717300000000    0.3706051830000000    0.7777779120000000 Se
   0.3706045500000000    0.0372711330000000    0.7777779120000000 Se
   0.3333332000000000    0.7960616530000000    0.0555552220000000 Se
   0.6293951400000000    0.3333331930000000    0.4999998420000000 Se
   0.8333332500000000    0.1293952030000000    0.2222222620000000 Se
   0.1666667100000000    0.4627286730000000    0.7222224020000000 Se
   0.6228635000000000    0.5089455730000000    0.3421935620000000 Se
   0.4639609200000000    0.6650091830000000    0.3348491320000000 Se
   0.6666667800000000    0.1293952030000000    0.5555553519999999 Se
   0.5034723100000000    0.4474358730000000    0.5629093820000000 Se
   0.0372715900000000    0.8706051330000000    0.1111112320000000 Se
   0.8706046200000001    0.0372711230000000    0.1111112320000000 Se
   0.7960617600000000    0.1666667030000000    0.3333332920000000 Se
   0.7960616100000000    0.3333331830000000    0.1666667520000000 Se
   0.4708386900000000    0.3313035130000000    0.6674561620000000 Se
   0.2960617000000000    0.6666666630000000    0.4999998420000000 Se
   0.2926041700000000    0.5048549230000000    0.6649827220000000 Se
   0.2039382100000000    0.3706046930000000    0.7777779120000000 Se
   0.3706046700000000    0.2039381930000000    0.7777779120000000 Se
   0.0000001000000000    0.7960621530000001    0.3888888120000000 Se
   0.8333332600000000    0.2960616930000000    0.0555552220000000 Se
   0.5000001500000000    0.1293952030000000    0.7222224020000000 Se
   0.3333332000000000    0.7960616530000000    0.2222222620000000 Se
   0.3675306600000000    0.5386419730000001    0.6091551120000001 Se
   0.5372716600000000    0.7039381530000000    0.1111112320000000 Se
   0.7039381300000001    0.5372716630000000    0.1111112320000000 Se
   0.5005961400000000    0.6274675630000000    0.3904707720000000 Se
   0.5454052300000000    0.3628708130000000    0.6125176919999999 Se
   0.0000002300000000    0.1293952030000000    0.8888889420000000 Se
   0.2960616800000000    0.1666667030000000    0.8333334320000000 Se
   0.2960615500000000    0.8333331430000001    0.1666667520000000 Se
   0.2039380700000000    0.8706046430000000    0.1111112320000000 Se
   0.8706047500000000    0.2039382030000000    0.1111112320000000 Se
   0.1666665700000000    0.7960616430000000    0.3888888120000000 Se
   0.5158501599999999    0.5589968630000000    0.4873812820000000 Se
   0.6678354600000000    0.4698720530000000    0.3900236320000000 Se
   0.3339442700000000    0.6328100930000000    0.5550912920000000 Se
   0.1293952200000000    0.3333331930000000    0.8333334320000000 Se
   0.1293950800000000    0.8333331430000001    0.3333332920000000 Se
   0.7039381300000001    0.3706046830000000    0.4444443220000000 Se
   0.8333332600000000    0.2960616930000000    0.2222222620000000 Se
   0.1666667000000000    0.1293952030000000    0.8888889420000000 Se
   0.0372715900000000    0.8706051330000000    0.2777777820000000 Se
   0.3738365200000000    0.7066969630000000    0.4442026620000000 Se
   0.8706046200000001    0.0372711230000000    0.2777777820000000 Se
   0.6293951600000000    0.0000001330000000    0.6666668820000000 Se
   0.6666666300000000    0.2960616930000000    0.5555553519999999 Se
   0.6666666400000000    0.6293951630000000    0.0555552220000000 Se
   0.3302582600000000    0.4702114230000000    0.7219055420000000 Se
   0.7032366799999999    0.5348136930000000    0.2762247420000000 Se
   0.5380574400000000    0.7010047530000000    0.2792330420000000 Se
   0.5000001600000000    0.2960621930000000    0.7222224020000000 Se
   0.8333332500000000    0.1293952030000000    0.3888888120000000 Se
   0.6293951300000000    0.1666667030000000    0.6666668820000000 Se
   0.6293951500000000    0.6666666630000000    0.1666667520000000 Se
   0.0372715900000000    0.7039381530000000    0.6111113720000000 Se
   0.7039381500000000    0.0372716230000000    0.6111113720000000 Se
   0.2039380700000000    0.8706046430000000    0.2777777820000000 Se
   0.8706047500000000    0.2039382030000000    0.2777777820000000 Se
   0.0000002300000000    0.2960621830000000    0.8888889420000000 Se
   0.5000001700000000    0.7960621430000000    0.0555552220000000 Se
   0.6666666400000000    0.6293951630000000    0.2222222620000000 Se
   0.2960616900000000    0.3333331930000000    0.8333334320000000 Se
   0.2960615500000000    0.8333331430000001    0.3333332920000000 Se
   0.0372717400000000    0.5372716730000000    0.7777779120000000 Se
   0.5372716800000000    0.0372716330000000    0.7777779120000000 Se
   0.3333332000000000    0.7960616530000000    0.3888888120000000 Se
   0.4617765400000000    0.4978844430000000    0.6665183020000000 Se
   0.1666667100000000    0.2960616930000000    0.8888889420000000 Se
   0.3706047000000000    0.8706046430000000    0.1111112320000000 Se
   0.8706047600000000    0.3706046930000000    0.1111112320000000 Se
   0.4627285300000000    0.0000001230000000    0.8333334320000000 Se
   0.2039382200000000    0.7039381630000000    0.6111113720000000 Se
   0.7039382800000000    0.2039382030000000    0.6111113720000000 Se
   0.7960617600000000    0.1666667030000000    0.4999998420000000 Se
   0.7960616200000000    0.4999996730000000    0.1666667520000000 Se
   0.8333331100000000    0.4627281730000000    0.0555552220000000 Se
   0.4677175700000000    0.6663113530000000    0.5007527420000000 Se
   0.0000000900000000    0.6293951630000000    0.7222224020000000 Se
   0.3333331800000000    0.1293952130000000    0.8888889420000000 Se
   0.0000001000000000    0.9627286330000000    0.0555552220000000 Se
   0.5000001700000000    0.7960621430000000    0.2222222620000000 Se
   0.8333332600000000    0.2960616930000000    0.3888888120000000 Se
   0.0372717300000000    0.2039382030000000    0.9444444620000000 Se
   0.2039380700000000    0.0372716230000000    0.9444444620000000 Se
   0.2039382100000000    0.5372716730000000    0.7777779120000000 Se
   0.5372716500000000    0.2039382030000000    0.7777779120000000 Se
   0.4627286600000000    0.1666667030000000    0.8333334320000000 Se
   0.4627286800000000    0.8333336430000000    0.1666667520000000 Se
   0.5355572100000000    0.5291125930000000    0.6113168120000000 Se
   0.0000001000000000    0.7960621530000001    0.5555553519999999 Se
   0.1666667200000000    0.6293951630000000    0.7222224020000000 Se
   0.5089072200000000    0.6231238430000000    0.5482574520000000 Se
   0.6293951400000000    0.3333331930000000    0.6666668820000000 Se
   0.9627286100000000    0.0000001330000000    0.1666667520000000 Se
   0.0372715900000000    0.8706051330000000    0.4444443220000000 Se
   0.8706046200000001    0.0372711230000000    0.4444443220000000 Se
   0.1666665800000000    0.9627286330000000    0.0555552220000000 Se
   0.8333331100000000    0.4627281730000000    0.2222222620000000 Se
   0.1293952200000000    0.5000001730000000    0.8333334320000000 Se
   0.1293950800000000    0.8333331430000001    0.4999998420000000 Se
   0.6360599700000000    0.6689899330000000    0.3348432320000000 Se
   0.6662651400000000    0.4657358330000000    0.5556225120000000 Se
   0.1666665700000000    0.7960616430000000    0.5555553519999999 Se
   0.3706047000000000    0.8706046430000000    0.2777777820000000 Se
   0.8706047600000000    0.3706046930000000    0.2777777820000000 Se
   0.0000001000000000    0.9627286330000000    0.2222222620000000 Se
   0.6666667800000000    0.1293952030000000    0.7222224020000000 Se
   0.4968050100000000    0.4613967730000000    0.7240390420000000 Se
   0.5392539400000000    0.7046676830000000    0.4442079420000000 Se
   0.3333331800000000    0.2960616930000000    0.8888889420000000 Se
   0.7044532800000000    0.5415169630000000    0.4465025420000000 Se
   0.7960616100000000    0.3333331830000000    0.4999998420000000 Se
   0.7960616200000000    0.4999996730000000    0.3333332920000000 Se
   0.2039380700000000    0.8706046430000000    0.4444443220000000 Se
   0.8706047500000000    0.2039382030000000    0.4444443220000000 Se
   0.0000002400000000    0.4627286730000000    0.8888889420000000 Se
   0.1666665800000000    0.9627286330000000    0.2222222620000000 Se
   0.7039381300000001    0.3706046830000000    0.6111113720000000 Se
   0.3748370600000000    0.7075245730000000    0.6103736120000000 Se
   0.4627286600000000    0.3333336830000000    0.8333334320000000 Se
   0.4627286800000000    0.8333336430000000    0.3333332920000000 Se
   0.8333332500000000    0.1293952030000000    0.5555553519999999 Se
   0.6798549699999999    0.6395414930000000    0.3910678720000000 Se
   0.3316214200000000    0.6314669130000000    0.7195616419999999 Se
   0.5030698200000000    0.7882106930000000    0.3900591720000000 Se
   0.0372717300000000    0.3706051830000000    0.9444444620000000 Se
   0.3706045500000000    0.0372711330000000    0.9444444620000000 Se
   0.3706046900000000    0.5372711730000000    0.7777779120000000 Se
   0.5372716500000000    0.3706051830000000    0.7777779120000000 Se
   0.1666667100000000    0.4627286730000000    0.8888889420000000 Se
   0.2960617000000000    0.4999996830000000    0.8333334320000000 Se
   0.2960615500000000    0.8333331430000001    0.4999998420000000 Se
   0.9627286100000000    0.0000001330000000    0.3333332920000000 Se
   0.3333330500000000    0.9627281330000000    0.0555552220000000 Se
   0.1293952100000000    0.1666667030000000    0.9999997020000000 Se
   0.3333332000000000    0.7960616530000000    0.5555553519999999 Se
   0.6666666300000000    0.2960616930000000    0.7222224020000000 Se
   0.5000001500000000    0.1293952030000000    0.8888889420000000 Se
   0.5372716700000000    0.8706051430000000    0.1111112320000000 Se
   0.8706046100000000    0.5372711730000000    0.1111112320000000 Se
   0.8333331100000000    0.4627281730000000    0.3888888120000000 Se
   0.9627287400000000    0.1666667030000000    0.3333332920000000 Se
   0.9627287400000000    0.3333336830000000    0.1666667520000000 Se
   0.7059033400000000    0.7018374830000000    0.2760722620000000 Se
   0.2039382100000000    0.3706046930000000    0.9444444620000000 Se
   0.3706046700000000    0.2039381930000000    0.9444444620000000 Se
   0.0000001000000000    0.9627286330000000    0.3888888120000000 Se
   0.6666666500000000    0.7960616530000000    0.0555552220000000 Se
   0.6263747200000001    0.4960831730000000    0.6673749820000000 Se
   0.3333330500000000    0.9627281330000000    0.2222222620000000 Se
   0.6293951600000000    0.0000001330000000    0.8333334320000000 Se
   0.8333332600000000    0.2960616930000000    0.5555553519999999 Se
   0.3706047000000000    0.8706046430000000    0.4444443220000000 Se
   0.8706047600000000    0.3706046930000000    0.4444443220000000 Se
   0.8333331200000000    0.6293951630000000    0.0555552220000000 Se
   0.4596880300000000    0.6650338430000000    0.6681195020000000 Se
   0.0372715900000000    0.7039381530000000    0.7777779120000000 Se
   0.7039381500000000    0.0372716230000000    0.7777779120000000 Se
   0.1666665800000000    0.9627286330000000    0.3888888120000000 Se
   0.7960617600000000    0.1666667030000000    0.6666668820000000 Se
   0.7960616200000000    0.6666666530000001    0.1666667520000000 Se
   0.2960615600000000    0.9999996330000001    0.1666667520000000 Se
   0.2960616800000000    0.1666667030000000    0.9999997020000000 Se
   0.3333331900000000    0.4627281830000000    0.8888889420000000 Se
   0.6293951300000000    0.1666667030000000    0.8333334320000000 Se
   0.6293951500000000    0.8333331430000001    0.1666667520000000 Se
   0.6390222500000000    0.6802316130000000    0.4981836820000000 Se
   0.5372716700000000    0.8706051430000000    0.2777777820000000 Se
   0.8706046100000000    0.5372711730000000    0.2777777820000000 Se
   0.1293952200000000    0.3333331930000000    0.9999997020000000 Se
   0.5000001600000000    0.2960621930000000    0.8888889420000000 Se
   0.6666666500000000    0.7960616530000000    0.2222222620000000 Se
   0.0372715900000000    0.8706051330000000    0.6111113720000000 Se
   0.8706046200000001    0.0372711230000000    0.6111113720000000 Se
   0.8333331200000000    0.6293951630000000    0.2222222620000000 Se
   0.2039382200000000    0.7039381630000000    0.7777779120000000 Se
   0.7039382800000000    0.2039382030000000    0.7777779120000000 Se
   0.7000474800000001    0.5392440130000000    0.6115917320000001 Se
   0.0000001000000000    0.7960621530000001    0.7222224020000000 Se
   0.1293950700000000    0.6666666530000001    0.8333334320000000 Se
   0.1293950800000000    0.8333331430000001    0.6666668820000000 Se
   0.5339193200000000    0.7044182329999999    0.6142020720000000 Se
   0.4627286700000000    0.5000001730000000    0.8333334320000000 Se
   0.4627286800000000    0.8333336430000000    0.4999998420000000 Se
   0.6683561700000000    0.6365670630000000    0.5545870520000000 Se
   0.4973667900000000    0.6274184130000000    0.7232341420000000 Se
   0.2039380700000000    0.8706046430000000    0.6111113720000000 Se
   0.8706047500000000    0.2039382030000000    0.6111113720000000 Se
   0.9627286100000000    0.0000001330000000    0.4999998420000000 Se
   0.6659838900000000    0.4603719530000000    0.7223918620000001 Se
   0.5000001800000000    0.9627286330000000    0.0555552220000000 Se
   0.0372717400000000    0.5372716730000000    0.9444444620000000 Se
   0.5372716800000000    0.0372716330000000    0.9444444620000000 Se
   0.1666665700000000    0.7960616430000000    0.7222224020000000 Se
   0.5058067200000000    0.7857238230000000    0.5585082720000000 Se
   0.0000000900000000    0.6293951630000000    0.8888889420000000 Se
   0.3333330500000000    0.9627281330000000    0.3888888120000000 Se
   0.7960616100000000    0.3333331830000000    0.6666668820000000 Se
   0.7983388500000000    0.6696445630000000    0.3317135920000000 Se
   0.2960615600000000    0.9999996330000001    0.3333332920000000 Se
   0.2960616900000000    0.3333331930000000    0.9999997020000000 Se
   0.6293951400000000    0.3333331930000000    0.8333334320000000 Se
   0.9627287400000000    0.1666667030000000    0.4999998420000000 Se
   0.9627285900000000    0.5000001730000000    0.1666667520000000 Se
   0.6323533300000000    0.8350246930000000    0.3355908320000000 Se
   0.1666667200000000    0.6293951630000000    0.8888889420000000 Se
   0.8333331100000000    0.4627281730000000    0.5555553519999999 Se
   0.2039382100000000    0.5372716730000000    0.9444444620000000 Se
   0.5372716500000000    0.2039382030000000    0.9444444620000000 Se
   0.5000001800000000    0.9627286330000000    0.2222222620000000 Se
   0.2960617000000000    0.6666666630000000    0.8333334320000000 Se
   0.2960615500000000    0.8333331430000001    0.6666668820000000 Se
   0.8333332500000000    0.1293952030000000    0.7222224020000000 Se
   0.0000001000000000    0.9627286330000000    0.5555553519999999 Se
   0.3706046900000000    0.7039381530000000    0.7777779120000000 Se
   0.7039381300000001    0.3706046830000000    0.7777779120000000 Se
   0.6707716200000000    0.7988140230000000    0.3910299920000000 Se
   0.4627286600000000    0.1666667030000000    0.9999997020000000 Se
   0.8333331200000000    0.6293951630000000    0.3888888120000000 Se
   0.5372716700000000    0.8706051430000000    0.4444443220000000 Se
   0.8706046100000000    0.5372711730000000    0.4444443220000000 Se
   0.6666667800000000    0.1293952030000000    0.8888889420000000 Se
   0.5000001600000000    0.4627286730000000    0.8888889420000000 Se
   0.1666665800000000    0.9627286330000000    0.5555553519999999 Se
   0.7039381400000000    0.8706046330000000    0.1111112320000000 Se
   0.8706046100000000    0.7039381530000000    0.1111112320000000 Se
   0.3333332000000000    0.7960616530000000    0.7222224020000000 Se
   0.1293952200000000    0.5000001730000000    0.9999997020000000 Se
   0.3706047000000000    0.8706046430000000    0.6111113720000000 Se
   0.8706047600000000    0.3706046930000000    0.6111113720000000 Se
   0.6255747300000000    0.6658160430000000    0.6674754820000000 Se
   0.9627287400000000    0.3333336830000000    0.4999998420000000 Se
   0.9627285900000000    0.5000001730000000    0.3333332920000000 Se
   0.3333331900000000    0.6293951630000000    0.8888889420000000 Se
   0.8333332600000000    0.2960616930000000    0.7222224020000000 Se
   0.3706046900000000    0.5372711730000000    0.9444444620000000 Se
   0.5372716500000000    0.3706051830000000    0.9444444620000000 Se
   0.6666666300000000    0.2960616930000000    0.8888889420000000 Se
   0.4627286600000000    0.3333336830000000    0.9999997020000000 Se
   0.5000001800000000    0.9627286330000000    0.3888888120000000 Se
   0.7960616200000000    0.4999996730000000    0.6666668820000000 Se
   0.7039381400000000    0.8706046330000000    0.2777777820000000 Se
   0.8706046100000000    0.7039381530000000    0.2777777820000000 Se
   0.8333331200000000    0.7960616430000000    0.0555552220000000 Se
   0.2960615600000000    0.9999996330000001    0.4999998420000000 Se
   0.2960617000000000    0.4999996830000000    0.9999997020000000 Se
   0.7988987700000000    0.6722504030000001    0.4995596420000000 Se
   0.6293951400000000    0.5000001730000000    0.8333334320000000 Se
   0.6312724800000000    0.8339579730000000    0.5019986020000000 Se
   0.3333330500000000    0.9627281330000000    0.5555553519999999 Se
   0.4627286800000000    0.6666666630000000    0.8333334320000000 Se
   0.4627286800000000    0.8333336430000000    0.6666668820000000 Se
   0.6641911900000000    0.6260584830000000    0.7216383820000000 Se
   0.7960617600000000    0.1666667030000000    0.8333334320000000 Se
   0.7960616300000000    0.8333331430000001    0.1666667520000000 Se
   0.0372715900000000    0.8706051330000000    0.7777779120000000 Se
   0.8706046200000001    0.0372711230000000    0.7777779120000000 Se
   0.7018190100000000    0.7065273230000000    0.6132662320000000 Se
   0.9627286100000000    0.0000001330000000    0.6666668820000000 Se
   0.6666666500000000    0.9627286330000000    0.0555552220000000 Se
   0.8333331200000000    0.7960616430000000    0.2222222620000000 Se
   0.0372715900000000    0.7039381530000000    0.9444444620000000 Se
   0.7039381500000000    0.0372716230000000    0.9444444620000000 Se
   0.5372716600000000    0.7039381530000000    0.7777779120000000 Se
   0.7039381300000001    0.5372716630000000    0.7777779120000000 Se
   0.6685154500000000    0.7979906530000000    0.5586050720000000 Se
   0.9627287400000000    0.1666667030000000    0.6666668820000000 Se
   0.9627286000000000    0.6666666630000000    0.1666667520000000 Se
   0.8333331200000000    0.6293951630000000    0.5555553519999999 Se
   0.2039380700000000    0.8706046430000000    0.7777779120000000 Se
   0.8706047500000000    0.2039382030000000    0.7777779120000000 Se
   0.5045994000000000    0.7929168030000000    0.7244485220000000 Se
   0.5372716700000000    0.8706051430000000    0.6111113720000000 Se
   0.8706046100000000    0.5372711730000000    0.6111113720000000 Se
   0.6666666500000000    0.9627286330000000    0.2222222620000000 Se
   0.0000001000000000    0.7960621530000001    0.8888889420000000 Se
   0.6293951300000000    0.1666667030000000    0.9999997020000000 Se
   0.2039382200000000    0.7039381630000000    0.9444444620000000 Se
   0.7039382800000000    0.2039382030000000    0.9444444620000000 Se
   0.8333331100000000    0.4627281730000000    0.7222224020000000 Se
   0.5000001700000000    0.6293951630000000    0.8888889420000000 Se
   0.7960616100000000    0.3333331830000000    0.8333334320000000 Se
   0.7960616300000000    0.8333331430000001    0.3333332920000000 Se
   0.0000001000000000    0.9627286330000000    0.7222224020000000 Se
   0.6666666400000000    0.4627286830000000    0.8888889420000000 Se
   0.7039381400000000    0.8706046330000000    0.4444443220000000 Se
   0.8706046100000000    0.7039381530000000    0.4444443220000000 Se
   0.1666665700000000    0.7960616430000000    0.8888889420000000 Se
   0.1293950700000000    0.6666666530000001    0.9999997020000000 Se
   0.4627286700000000    0.5000001730000000    0.9999997020000000 Se
   0.1666665800000000    0.9627286330000000    0.7222224020000000 Se
   0.8333331200000000    0.7960616430000000    0.3888888120000000 Se
   0.9627287400000000    0.3333336830000000    0.6666668820000000 Se
   0.9627286000000000    0.6666666630000000    0.3333332920000000 Se
   0.5000001800000000    0.9627286330000000    0.5555553519999999 Se
   0.3706047000000000    0.8706046430000000    0.7777779120000000 Se
   0.8706047600000000    0.3706046930000000    0.7777779120000000 Se
   0.8333332500000000    0.1293952030000000    0.8888889420000000 Se
   0.6293951400000000    0.3333331930000000    0.9999997020000000 Se
   0.6666666500000000    0.9627286330000000    0.3888888120000000 Se
   0.3706046900000000    0.7039381530000000    0.9444444620000000 Se
   0.7039381300000001    0.3706046830000000    0.9444444620000000 Se
   0.2960615600000000    0.9999996330000001    0.6666668820000000 Se
   0.2960617000000000    0.6666666630000000    0.9999997020000000 Se
   0.7985669200000000    0.6730221030000000    0.6646004620000000 Se
   0.3333332000000000    0.7960616530000000    0.8888889420000000 Se
   0.6293951500000000    0.6666666630000000    0.8333334320000000 Se
   0.6316924500000000    0.8326659430000000    0.6708305020000001 Se
   0.3333330500000000    0.9627281330000000    0.7222224020000000 Se
   0.8333332600000000    0.2960616930000000    0.8888889420000000 Se
   0.7960616200000000    0.4999996730000000    0.8333334320000000 Se
   0.7960616300000000    0.8333331430000001    0.4999998420000000 Se
   0.8333331200000000    0.6293951630000000    0.7222224020000000 Se
   0.6718692200000000    0.7985643230000000    0.7261432020000000 Se
   0.9627286100000000    0.0000001330000000    0.8333334320000000 Se
   0.9627285900000000    0.5000001730000000    0.6666668820000000 Se
   0.9627286000000000    0.6666666630000000    0.4999998420000000 Se
   0.8333331300000000    0.9627281330000000    0.0555552220000000 Se
   0.7039381400000000    0.8706046330000000    0.6111113720000000 Se
   0.8706046100000000    0.7039381530000000    0.6111113720000000 Se
   0.6666666400000000    0.6293951630000000    0.8888889420000000 Se
   0.8333331200000000    0.7960616430000000    0.5555553519999999 Se
   0.6293951400000000    0.5000001730000000    0.9999997020000000 Se
   0.9627287400000000    0.1666667030000000    0.8333334320000000 Se
   0.9627286000000000    0.8333336430000000    0.1666667520000000 Se
   0.0372715900000000    0.8706051330000000    0.9444444620000000 Se
   0.5372716700000000    0.8706051430000000    0.7777779120000000 Se
   0.8706046200000001    0.0372711230000000    0.9444444620000000 Se
   0.8706046100000000    0.5372711730000000    0.7777779120000000 Se
   0.4627286800000000    0.6666666630000000    0.9999997020000000 Se
   0.7960616300000000    0.9999996230000000    0.1666667520000000 Se
   0.7960617600000000    0.1666667030000000    0.9999997020000000 Se
   0.8333331300000000    0.9627281330000000    0.2222222620000000 Se
   0.5000001700000000    0.7960621430000000    0.8888889420000000 Se
   0.5372716600000000    0.7039381530000000    0.9444444620000000 Se
   0.7039381300000001    0.5372716630000000    0.9444444620000000 Se
   0.6666666500000000    0.9627286330000000    0.5555553519999999 Se
   0.2039380700000000    0.8706046430000000    0.9444444620000000 Se
   0.8706047500000000    0.2039382030000000    0.9444444620000000 Se
   0.5000001800000000    0.9627286330000000    0.7222224020000000 Se
   0.8333331100000000    0.4627281730000000    0.8888889420000000 Se
   0.1293950800000000    0.8333331430000001    0.9999997020000000 Se
   0.0000001000000000    0.9627286330000000    0.8888889420000000 Se
   0.9627287400000000    0.3333336830000000    0.8333334320000000 Se
   0.9627286000000000    0.8333336430000000    0.3333332920000000 Se
   0.1666665800000000    0.9627286330000000    0.8888889420000000 Se
   0.7960616300000000    0.9999996230000000    0.3333332920000000 Se
   0.7960616100000000    0.3333331830000000    0.9999997020000000 Se
   0.7960616200000000    0.6666666530000001    0.8333334320000000 Se
   0.7960616300000000    0.8333331430000001    0.6666668820000000 Se
   0.8333331300000000    0.9627281330000000    0.3888888120000000 Se
   0.2960615600000000    0.9999996330000001    0.8333334320000000 Se
   0.2960615500000000    0.8333331430000001    0.9999997020000000 Se
   0.3706047000000000    0.8706046430000000    0.9444444620000000 Se
   0.8706047600000000    0.3706046930000000    0.9444444620000000 Se
   0.3333330500000000    0.9627281330000000    0.8888889420000000 Se
   0.6293951500000000    0.6666666630000000    0.9999997020000000 Se
   0.8333331200000000    0.7960616430000000    0.7222224020000000 Se
   0.7039381400000000    0.8706046330000000    0.7777779120000000 Se
   0.8706046100000000    0.7039381530000000    0.7777779120000000 Se
   0.6666666500000000    0.7960616530000000    0.8888889420000000 Se
   0.9627285900000000    0.5000001730000000    0.8333334320000000 Se
   0.9627286000000000    0.8333336430000000    0.4999998420000000 Se
   0.8333331200000000    0.6293951630000000    0.8888889420000000 Se
   0.7960616300000000    0.9999996230000000    0.4999998420000000 Se
   0.7960616200000000    0.4999996730000000    0.9999997020000000 Se
   0.6666666500000000    0.9627286330000000    0.7222224020000000 Se
   0.4627286800000000    0.8333336430000000    0.9999997020000000 Se
   0.8333331300000000    0.9627281330000000    0.5555553519999999 Se
   0.5372716700000000    0.8706051430000000    0.9444444620000000 Se
   0.8706046100000000    0.5372711730000000    0.9444444620000000 Se
   0.9627287400000000    0.1666667030000000    0.9999997020000000 Se
   0.5000001800000000    0.9627286330000000    0.8888889420000000 Se
   0.9627287400000000    0.3333336830000000    0.9999997020000000 Se
   0.9627286000000000    0.6666666630000000    0.8333334320000000 Se
   0.9627286000000000    0.8333336430000000    0.6666668820000000 Se
   0.7960616300000000    0.9999996230000000    0.6666668820000000 Se
   0.7960616200000000    0.6666666530000001    0.9999997020000000 Se
   0.6293951500000000    0.8333331430000001    0.9999997020000000 Se
   0.8333331200000000    0.7960616430000000    0.8888889420000000 Se
   0.8333331300000000    0.9627281330000000    0.7222224020000000 Se
   0.7039381400000000    0.8706046330000000    0.9444444620000000 Se
   0.8706046100000000    0.7039381530000000    0.9444444620000000 Se
   0.6666666500000000    0.9627286330000000    0.8888889420000000 Se
   0.9627285900000000    0.5000001730000000    0.9999997020000000 Se
   0.7960616300000000    0.9999996230000000    0.8333334320000000 Se
   0.7960616300000000    0.8333331430000001    0.9999997020000000 Se
   0.9627286000000000    0.6666666630000000    0.9999997020000000 Se
   0.8333331300000000    0.9627281330000000    0.8888889420000000 Se
   0.9627286000000000    0.8333336430000000    0.9999997020000000 Se
