Se235
1.0
  19.5490800000000000    3.7622220000000000   -4.9635699999999998
   8.6884800000000002   15.0488879999999998    9.9271399999999996
   2.1721200000000001   -3.7622220000000000   19.8542799999999993
Se
235
direct
   0.6663418600000000    0.1111654570000000    0.1110027280000000 Se
   0.4267399970000000    0.4602961340000000    0.4603762300000000 Se
   0.0544199450000000    0.1819752000000000    0.0059506700000000 Se
   0.2023148550000000    0.0530134350000000    0.1907389170000000 Se
   0.1278800900000000    0.0342424050000000    0.2648490140000000 Se
   0.0031377970000000    0.2460779580000000    0.2110787350000000 Se
   0.2851885280000000    0.1435141900000000    0.0828733020000000 Se
   0.1535212250000000    0.2521910780000000    0.1622845760000000 Se
   0.2279559900000000    0.2709621080000000    0.0881744800000000 Se
   0.2339065150000000    0.2076167060000000    0.2880013570000000 Se
   0.1510336000000000    0.1171153740000000    0.3958670670000000 Se
   0.4355728960000000    0.1496269500000000    0.0340797400000000 Se
   0.0287787870000000    0.4640264400000000    0.1085147400000000 Se
   0.1766739750000000    0.3350646250000000    0.2933025350000000 Se
   0.0765988370000000    0.0983443440000000    0.4699771630000000 Se
   0.1022392100000000    0.3162935950000000    0.3674126300000000 Se
   0.3842908820000000    0.2137294700000000    0.2392077950000000 Se
   0.1791629080000000    0.4701394450000000    0.0597208140000000 Se
   0.4330845120000000    0.0145518250000000    0.2676621360000000 Se
   0.2595481970000000    0.4255650730000000    0.1854375940000000 Se
   0.4587256460000000    0.2325005000000000    0.1650977000000000 Se
   0.5159581850000000    0.1050525800000000    0.1597965200000000 Se
   0.1826243470000000    0.2717194160000000    0.4931300280000000 Se
   0.1278808940000000    0.5342419620000000    0.2648488700000000 Se
   0.4099318720000000    0.4316779500000000    0.1366438020000000 Se
   0.3818025650000000    0.0786538800000000    0.4727900550000000 Se
   0.4646761700000000    0.1691550970000000    0.3649245760000000 Se
   0.1569833670000000    0.0537705500000000    0.5956938500000000 Se
   0.2023156580000000    0.5530129920000000    0.1907387720000000 Se
   0.3330088680000000    0.2778319860000000    0.4443358500000000 Se
   0.4074436320000000    0.2966030160000000    0.3702257540000000 Se
   0.3073677350000000    0.0598833120000000    0.5469002880000000 Se
   0.5415991760000000    0.3230010600000000    0.0572325270000000 Se
   0.0997514330000000    0.1812180840000000    0.6009957370000000 Se
   0.1253918070000000    0.3991673350000000    0.4984312050000000 Se
   0.2082660300000000    0.4896677820000000    0.3905662650000000 Se
   0.4843666360000000    0.4504489800000000    0.0625337050000000 Se
   0.4917148000000000    0.3853250840000000    0.2635284920000000 Se
   0.0544198340000000    0.6819755260000000    0.0059510460000000 Se
   0.0509570440000000    0.3803963050000000    0.5725413020000000 Se
   0.0171140700000000    0.1626071840000000    0.6731344140000000 Se
   0.3535420530000000    0.5015992980000000    0.3334064140000000 Se
   0.2796048000000000    0.6389455700000000    0.0769335100000000 Se
   0.6150598470000000    0.1752679750000000    0.3161307830000000 Se
   0.4320579260000000    0.5178208750000000    0.2636107050000000 Se
   0.4133940040000000    0.2332578060000000    0.5700532460000000 Se
   0.1510334900000000    0.6171157000000000    0.3958674430000000 Se
   0.7407766240000000    0.1299364870000000    0.0368926320000000 Se
   0.6894946100000000    0.1940390050000000    0.2420206870000000 Se
   0.6929715870000001    0.3215868000000000    0.0077767280000000 Se
   0.0765987260000000    0.5983446700000000    0.4699775400000000 Se
   0.3561614640000000    0.3607057250000000    0.5753544240000000 Se
   0.3305203970000000    0.1427565900000000    0.6779187250000001 Se
   0.0031371480000000    0.7460782080000000    0.2110782640000000 Se
   0.3877530240000000    0.0153089400000000    0.6726170700000000 Se
   0.6407008370000000    0.3932164570000000    0.2135667900000000 Se
   0.4355726280000000    0.6496267180000000    0.0340796260000000 Se
   0.1480833500000000    0.7548850400000000    0.1539224330000000 Se
   0.1313423330000000    0.3358219330000000    0.6982580830000000 Se
   0.7467270060000000    0.0665908940000000    0.2367199530000000 Se
   0.2817267000000000    0.3419346950000000    0.6494645200000000 Se
   0.2292766620000000    0.7068864050000000    0.2816882370000000 Se
   0.7980091740000000    0.0024881840000000    0.0315912830000000 Se
   0.5591865000000000    0.2472010120000000    0.5145284270000000 Se
   0.2267953200000000    0.7652225640000000    0.0835616770000000 Se
   0.2560856330000000    0.1239855600000000    0.7520288220000000 Se
   0.5161973230000000    0.6049585370000000    0.1574387560000000 Se
   0.1057019580000000    0.1178726820000000    0.8008226140000000 Se
   0.6408059120000000    0.2556858930000000    0.4470159500000000 Se
   0.5381367000000000    0.0214218180000000    0.6238232760000000 Se
   0.6125714630000000    0.0401928480000000    0.5497131800000000 Se
   0.1569840160000000    0.5537703000000000    0.5956943200000000 Se
   0.2869537130000000    0.5628556100000000    0.5389265640000001 Se
   0.3601570700000000    0.5875256830000000    0.4647208100000000 Se
   0.6955926950000000    0.1277886400000000    0.4421359670000000 Se
   0.7723681400000000    0.2845395670000000    0.1341555160000000 Se
   0.7151356000000000    0.4119874870000000    0.1394566930000000 Se
   0.0484694200000000    0.2453206000000000    0.8061237920000000 Se
   0.3822565300000000    0.7175557440000000    0.2312030430000000 Se
   0.0741097940000000    0.4632698520000000    0.7035592600000000 Se
   0.5968775460000000    0.4468226070000000    0.4245527500000000 Se
   0.7208657540000000    0.3499656600000000    0.3348949300000000 Se
   0.4587398470000000    0.7332985540000000    0.1615763080000000 Se
   0.6636481620000000    0.4740303580000000    0.3448393000000000 Se
   0.4658685450000000    0.6505588650000000    0.3845214050000000 Se
   0.0957517260000000    0.8171293130000000    0.3615044940000000 Se
   0.1733214700000000    0.8326948400000000    0.2897049280000000 Se
   0.3621119900000000    0.2973603230000000    0.7751813020000000 Se
   0.0228280700000000    0.0273722620000000    0.9086874420000000 Se
   0.6663425200000000    0.6111648230000000    0.1110030270000000 Se
   0.0997514760000000    0.6812182200000000    0.6009954980000000 Se
   0.3709965400000000    0.5127272660000000    0.6655035760000000 Se
   0.8971108249999999    0.0727039630000000    0.1879257160000000 Se
   0.6376341200000000    0.1998149860000000    0.6417871450000000 Se
   0.1763546100000000    0.7696547100000000    0.4884362000000000 Se
   0.5049145370000000    0.3084322500000000    0.7179785800000000 Se
   0.5837561500000000    0.3261240370000000    0.6485759000000000 Se
   0.5249947860000000    0.5662366599999999    0.5327783400000000 Se
   0.3048794500000000    0.4248082430000000    0.7804824800000000 Se
   0.8458288100000000    0.1368064800000000    0.3930537720000000 Se
   0.3364709230000000    0.0794111870000000    0.8777456030000000 Se
   0.7980098230000000    0.5024879340000000    0.0315917530000000 Se
   0.0253162670000000    0.6624470620000000    0.6751057300000000 Se
   0.5612900540000000    0.1042949800000000    0.7548419440000000 Se
   0.2792383830000000    0.2068591070000000    0.8830467800000000 Se
   0.3288229450000000    0.7763457960000000    0.4434408020000000 Se
   0.2693765850000000    0.9008245880000000    0.1948893340000000 Se
   0.4044347080000000    0.7891356400000000    0.3711316280000000 Se
   0.6874443000000000    0.3817415270000000    0.5523461350000000 Se
   0.7349830480000000    0.5821391600000000    0.2255377680000000 Se
   0.4868552900000000    0.0855239500000000    0.8289520400000000 Se
   0.6103341799999999    0.6820416540000001    0.3135499350000000 Se
   0.0287788300000000    0.9640265750000000    0.1085145020000000 Se
   0.9227525080000000    0.2906523300000000    0.0853619540000000 Se
   0.7407770500000000    0.6299361380000000    0.0368927480000000 Se
   0.2304446870000000    0.4060372130000000    0.8545925760000000 Se
   0.9715455900000000    0.0914749930000000    0.1138156200000000 Se
   0.3241901050000000    0.6369278000000000    0.6760386530000000 Se
   0.8714704940000000    0.3547548470000000    0.2904900100000000 Se
   0.9202635750000000    0.1555775100000000    0.3189436750000000 Se
   0.5415992200000000    0.8230011960000000    0.0572322880000000 Se
   0.1791622600000000    0.9701396950000000    0.0597203430000000 Se
   0.0800603200000000    0.3999244500000000    0.9033861380000000 Se
   0.2048036200000000    0.1880880770000000    0.9571568770000000 Se
   0.6561084220000000    0.5074086630000000    0.5558969440000000 Se
   0.6806231030000000    0.7065702300000000    0.2351164780000000 Se
   0.2549338200000000    0.6187330880000000    0.7559784160000000 Se
   0.5450481380000000    0.4762573780000000    0.7080181150000000 Se
   0.4132512900000000    0.7287970540000001    0.5689280200000000 Se
   0.1057020020000000    0.6178728170000000    0.8008223750000000 Se
   0.8003372620000000    0.1777259500000000    0.6081646860000000 Se
   0.4099319160000000    0.9316780860000000    0.1366435620000000 Se
   0.9774966630000000    0.0281292840000000    0.3136431720000000 Se
   0.1206399200000000    0.8969255000000000    0.4940308640000000 Se
   0.8675652230000001    0.2055408000000000    0.5286565460000000 Se
   0.9897630450000000    0.3115431900000000    0.0098186550000000 Se
   0.9459052570000001    0.3735258770000000    0.2163799120000000 Se
   0.6926658130000000    0.6486622270000000    0.4326446230000000 Se
   0.8195150369999999    0.4181513930000000    0.4925122060000000 Se
   0.4903170520000000    0.8871039060000000    0.2623609600000000 Se
   0.0430831370000000    0.8815204200000000    0.5651293880000000 Se
   0.8433404270000000    0.0017313540000000    0.6266361680000000 Se
   0.0228277800000000    0.5273723700000000    0.9086873160000000 Se
   0.5813482960000000    0.2678168000000000    0.8421131230000000 Se
   0.5254596250000000    0.4051355960000000    0.8312266750000000 Se
   0.9262141000000000    0.0922321080000000    0.5187705520000000 Se
   0.5603984920000000    0.7480021050000000    0.5149792900000000 Se
   0.4843666800000000    0.9504491160000000    0.0625334660000000 Se
   0.2149063980000000    0.9730176640000000    0.3978488920000000 Se
   0.8914193000000000    0.4386533950000000    0.4164349850000000 Se
   0.9481047849999999    0.3084471300000000    0.4149129570000000 Se
   0.6919832750000000    0.8291135900000000    0.0084388500000000 Se
   0.8971114840000000    0.5727033300000000    0.1879260150000000 Se
   0.3108299760000000    0.3614628400000000    0.9803093570000000 Se
   0.3555680800000000    0.8558539070000000    0.5744112500000000 Se
   0.6304657530000000    0.7754992280000000    0.4367625170000000 Se
   0.2827536960000000    0.8357270999999999    0.6496951940000000 Se
   0.1313429920000000    0.8358212980000000    0.6982583820000000 Se
   0.0484694620000000    0.7453207360000000    0.8061235530000000 Se
   0.5100080400000000    0.1683974970000000    0.9599700000000000 Se
   0.4609587460000000    0.3652019180000000    0.9340215060000000 Se
   0.3364709670000000    0.5794113220000000    0.8777453629999999 Se
   0.6371370960000000    0.4984837170000000    0.7583542780000000 Se
   0.7723681840000000    0.7845397020000000    0.1341552760000000 Se
   0.5672398200000000    0.0409501560000000    0.9546687270000001 Se
   0.3586497480000000    0.9957807950000001    0.3417722330000000 Se
   0.6407008800000000    0.8932165900000000    0.2135665500000000 Se
   0.5541777200000000    0.6317882300000000    0.7463831720000000 Se
   0.4884170540000000    0.5919267100000000    0.8226921699999999 Se
   0.2535974370000000    0.4889107600000000    0.9856105340000000 Se
   0.8458294700000000    0.6368058460000000    0.3930540700000000 Se
   0.7473618000000000    0.2550262180000000    0.8078142360000000 Se
   0.8230611329999999    0.2650213070000000    0.7346842620000000 Se
   0.9715462480000000    0.5914743600000000    0.1138159200000000 Se
   0.8749319330000001    0.1563348180000000    0.7238992230000000 Se
   0.4390350380000000    0.9512064230000000    0.4674890140000000 Se
   0.7717666980000000    0.4821994400000000    0.6994567720000000 Se
   0.6348400150000000    0.7137894000000000    0.6374197780000000 Se
   0.7920584140000000    0.0658338700000000    0.8317642230000000 Se
   0.9008121240000000    0.3715873060000000    0.6186312550000000 Se
   0.9774967730000000    0.5281289570000000    0.3136427960000000 Se
   0.7176236499999999    0.0470628400000000    0.9058743200000000 Se
   0.8453348640000000    0.4998153040000000    0.6231422559999999 Se
   0.7210860160000000    0.8486424120000000    0.3392839470000000 Se
   0.2792384270000000    0.7068592420000001    0.8830465400000000 Se
   0.7151356440000000    0.9119876200000000    0.1394564540000000 Se
   0.3621119570000000    0.7973598039999999    0.7751813700000000 Se
   0.9202642340000000    0.6555768760000000    0.3189439740000000 Se
   0.0741104530000000    0.9632692180000000    0.7035595600000000 Se
   0.2048036630000000    0.6880882120000000    0.9571566379999999 Se
   0.5894187130000000    0.9573193000000000    0.4186952200000000 Se
   0.5010819650000000    0.8256944700000000    0.7128917920000000 Se
   0.5766559130000000    0.8463968140000000    0.6399116950000000 Se
   0.9262146060000001    0.5922316660000000    0.5187714670000000 Se
   0.7945473030000000    0.7009085560000000    0.5981827400000000 Se
   0.9227518600000000    0.7906525800000000    0.0853614840000000 Se
   0.6638534770000000    0.9760903300000000    0.3445851250000000 Se
   0.5672399299999999    0.5409498280000000    0.9546683500000001 Se
   0.8689820660000001    0.7196795860000000    0.5240726449999999 Se
   0.3048794170000000    0.9248077240000000    0.7804825480000001 Se
   0.8714698450000000    0.8547550970000000    0.2904895400000000 Se
   0.6698040020000000    0.9127449300000000    0.5444120020000000 Se
   0.8236499200000000    0.2204373350000000    0.9290272780000000 Se
   0.8493346070000000    0.4375939070000000    0.8271677340000000 Se
   0.7771890700000000    0.3291353240000000    0.9436155080000000 Se
   0.2304446540000000    0.9060366940000000    0.8545926440000000 Se
   0.5100073920000000    0.6683977480000000    0.9599695300000000 Se
   0.7155654470000000    0.5486438000000000    0.9029703900000000 Se
   0.0800608250000000    0.8999240080000001    0.9033870520000000 Se
   0.7915674840000000    0.5664143000000000    0.8305947170000000 Se
   0.9971870030000000    0.8094231260000000    0.0112517430000000 Se
   0.5928816139999999    0.7588981950000000    0.8521045900000001 Se
   0.9459046100000000    0.8735261270000000    0.2163794420000000 Se
   0.8749325920000000    0.6563341840000000    0.7238995220000000 Se
   0.9518549800000000    0.8101809180000000    0.4162069350000000 Se
   0.9671571070000000    0.2265542200000000    0.8779280500000000 Se
   0.8201876769999999    0.9188578070000000    0.4956182100000000 Se
   0.7432652900000000    0.7650110730000000    0.8033107960000000 Se
   0.3108297900000000    0.8614625140000000    0.9803100400000000 Se
   0.9996752770000000    0.4444985800000000    0.7776697230000000 Se
   0.5356490739999999    0.8863461140000000    0.8574057670000000 Se
   0.8177000530000000    0.7837821030000000    0.7292007000000000 Se
   0.4612143100000000    0.8675750840000001    0.9315158630000000 Se
   0.8946224400000000    0.9376288370000000    0.4215081130000000 Se
   0.9483933070000000    0.0086012320000000    0.9827975380000000 Se
   0.6185219900000000    0.9768474460000000    0.7495400570000000 Se
   0.9005729670000000    0.8742834350000001    0.6213349900000000 Se
   0.2535972500000000    0.9889104330000000    0.9856112180000000 Se
   0.7689056640000000    0.9829603240000000    0.7007462640000000 Se
   0.8236505780000000    0.7204367000000000    0.9290275770000000 Se
   0.9483932630000000    0.5086010970000000    0.9827977780000000 Se
   0.7664180400000000    0.8478846200000000    0.9343287550000000 Se
   0.9740342530000000    0.7265495800000000    0.8802337840000000 Se
   0.8492909530000000    0.9383859520000000    0.8264630450000000 Se
   0.9996753200000000    0.9444987150000000    0.7776694830000001 Se
