Se235
1.0
  19.5490800000000000    3.7622220000000000   -4.9635699999999998
   8.6884800000000002   15.0488879999999998    9.9271399999999996
   2.1721200000000001   -3.7622220000000000   19.8542799999999993
Se
235
direct
   0.6663421380000000    0.1111648570000000    0.1110026460000000 Se
   0.6379736080000000    0.7050671970000000    0.6388403660000000 Se
   0.0544194580000000    0.1819755570000000    0.0059506560000000 Se
   0.2023152080000000    0.0530134870000000    0.1907385160000000 Se
   0.1278804480000000    0.0342424570000000    0.2648486160000000 Se
   0.0031374580000000    0.2460781270000000    0.2110781160000000 Se
   0.2851888780000000    0.1435142370000000    0.0828729160000000 Se
   0.1535214280000000    0.2521913170000000    0.1622847960000000 Se
   0.2279561880000000    0.2709623470000000    0.0881746960000000 Se
   0.2339067180000000    0.2076169470000000    0.2880015760000000 Se
   0.1510331080000000    0.1171157270000000    0.3958670560000000 Se
   0.4355727880000000    0.1496268270000000    0.0340800760000000 Se
   0.0287784480000000    0.4640266070000000    0.1085141160000000 Se
   0.1766741780000000    0.3350648670000000    0.2933027560000000 Se
   0.0765982780000000    0.0983451570000000    0.4699772860000000 Se
   0.1022394180000000    0.3162938370000000    0.3674128460000000 Se
   0.3842910080000000    0.2137290570000000    0.2392083260000000 Se
   0.1791627980000000    0.4701393170000000    0.0597211460000000 Se
   0.4330847880000000    0.0145512170000000    0.2676620460000000 Se
   0.2595477080000000    0.4255654270000000    0.1854375860000000 Se
   0.4587257680000000    0.2325000870000000    0.1650982260000000 Se
   0.5159583180000000    0.1050517870000000    0.1597968760000000 Se
   0.1826246980000000    0.2717194670000000    0.4931296260000000 Se
   0.1278804080000000    0.5342423170000000    0.2648488560000000 Se
   0.4099319980000000    0.4316775370000000    0.1366443260000000 Se
   0.3818026280000000    0.0786539270000000    0.4727907160000000 Se
   0.4646762980000000    0.1691546870000000    0.3649251060000000 Se
   0.2023151680000000    0.5530133470000000    0.1907387560000000 Se
   0.3330089980000000    0.2778315770000000    0.4443363760000000 Se
   0.4059666280000000    0.3034228370000000    0.3703812960000000 Se
   0.1665379680000000    0.0487266170000000    0.6039439460000000 Se
   0.5433911480000000    0.3234382770000000    0.0577381960000000 Se
   0.0997510980000000    0.1812182470000000    0.6009951059999999 Se
   0.3100887880000000    0.0599276570000000    0.5538040960000000 Se
   0.1253921680000000    0.3991673870000000    0.4984308060000000 Se
   0.2082656980000000    0.4896679470000000    0.3905656360000000 Se
   0.4843665280000000    0.4504488470000000    0.0625340460000000 Se
   0.4903172880000000    0.3871031670000000    0.2623611060000000 Se
   0.0544194980000000    0.6819756870000000    0.0059504160000000 Se
   0.0509573980000000    0.3803963570000000    0.5725409060000000 Se
   0.3371686580000000    0.5075778270000000    0.3272770060000000 Se
   0.0253165780000000    0.1624469770000000    0.6751055760000000 Se
   0.2851886980000000    0.6435139070000000    0.0828735860000000 Se
   0.6150599680000000    0.1752675570000000    0.3161313060000000 Se
   0.4131626580000000    0.5277551069999999    0.2546644360000000 Se
   0.4133942780000000    0.2332571970000000    0.5700531559999999 Se
   0.1510331580000000    0.6171158670000000    0.3958668160000000 Se
   0.7407765180000000    0.1299363570000000    0.0368929660000000 Se
   0.6894947380000001    0.1940385870000000    0.2420212160000000 Se
   0.0765983880000000    0.5983448370000000    0.4699769160000000 Se
   0.3305207580000000    0.1427566370000000    0.6779183260000000 Se
   0.3550047780000000    0.3656805270000000    0.5754995860000000 Se
   0.4225739180000000    0.4606985270000000    0.4554096060000000 Se
   0.0031373480000000    0.7460784470000000    0.2110784860000000 Se
   0.7054678980000000    0.3244231170000000    0.0153396360000000 Se
   0.6407010380000000    0.3932166970000000    0.2135670060000000 Se
   0.3906700680000000    0.0194662170000000    0.6771491860000000 Se
   0.4355728280000000    0.6496269569999999    0.0340798360000000 Se
   0.1535213980000000    0.7521907970000000    0.1622848660000000 Se
   0.1313426880000000    0.3358219770000000    0.6982576860000000 Se
   0.2817269780000000    0.3419340870000000    0.6494644360000000 Se
   0.7467273580000000    0.0665909470000000    0.2367195560000000 Se
   0.7980091380000000    0.0024887070000000    0.0315913160000000 Se
   0.2310621180000000    0.7109954370000000    0.2851095260000000 Se
   0.5624685380000000    0.2372960070000000    0.5217790060000000 Se
   0.2560859880000000    0.1239856070000000    0.7520284260000000 Se
   0.2327592280000000    0.7695974870000000    0.0874821960000000 Se
   0.5159583580000000    0.6050522970000000    0.1597968060000000 Se
   0.1057016180000000    0.1178728470000000    0.8008219860000000 Se
   0.6359735880000000    0.2581877370000000    0.4472184760000000 Se
   0.5381368280000000    0.0214214070000000    0.6238237960000000 Se
   0.6125715880000000    0.0401924370000000    0.5497136960000000 Se
   0.1569836780000000    0.5537704670000000    0.5956936960000000 Se
   0.7723684980000000    0.2845396170000000    0.1341551260000000 Se
   0.6954452580000000    0.1306931870000000    0.4418480860000000 Se
   0.5655838080000000    0.4647651870000000    0.4010003660000000 Se
   0.2913017080000000    0.5685468070000000    0.5373761960000000 Se
   0.3729013080000000    0.5816284770000000    0.4692502360000000 Se
   0.7151357980000000    0.4119877270000000    0.1394569160000000 Se
   0.0484693280000000    0.2453205270000000    0.8061235260000000 Se
   0.0741099980000000    0.4632700870000000    0.7035594760000000 Se
   0.3875708180000000    0.7114778470000001    0.2434274560000000 Se
   0.7210863280000001    0.3486423270000000    0.3392837860000000 Se
   0.4629763480000000    0.7283656870000000    0.1704107960000000 Se
   0.6548895280000000    0.4751953970000000    0.3452932860000000 Se
   0.4673871880000000    0.6666602069999999    0.3692228460000000 Se
   0.1022393780000000    0.8162933170000000    0.3674129160000000 Se
   0.1778278780000000    0.8384698870000000    0.2915260160000000 Se
   0.3621122680000000    0.2973597170000000    0.7751812160000000 Se
   0.0228281980000000    0.0273718470000000    0.9086879660000000 Se
   0.6663420280000000    0.6111651769999999    0.1110030160000000 Se
   0.0997509880000000    0.6812185770000000    0.6009954760000000 Se
   0.8971110380000000    0.0727038170000000    0.1879257660000000 Se
   0.3697605980000000    0.5195601070000000    0.6645706760000000 Se
   0.6479656380000000    0.3913932170000000    0.5337028060000000 Se
   0.6445432679999999    0.1913140870000000    0.6475675960000000 Se
   0.5853834280000000    0.3176182370000000    0.6556417860000000 Se
   0.1794105580000000    0.7766531670000000    0.4891629760000000 Se
   0.3007875880000000    0.4302817270000000    0.7814317860000000 Se
   0.5113254180000000    0.3006146770000000    0.7315276960000000 Se
   0.8458290180000000    0.1368067170000000    0.3930539860000000 Se
   0.3364711380000000    0.0794110470000000    0.8777456460000000 Se
   0.7999121780000000    0.4990855870000000    0.0340229960000000 Se
   0.0253166280000000    0.6624471070000000    0.6751053360000000 Se
   0.5612897180000000    0.1042951470000000    0.7548413160000000 Se
   0.2792385880000000    0.2068593470000000    0.8830469960000000 Se
   0.3401223680000000    0.7764233670000000    0.4479480060000000 Se
   0.4868548080000000    0.0855239170000000    0.8289518560000000 Se
   0.7467273180000000    0.5665908070000000    0.2367197960000000 Se
   0.4093633480000000    0.7971766870000000    0.3700643960000000 Se
   0.0287783380000000    0.9640269270000000    0.1085144860000000 Se
   0.9227521680000000    0.2906524970000000    0.0853613360000000 Se
   0.6209642080000000    0.6778846570000000    0.3185635560000000 Se
   0.7407765580000000    0.6299364970000000    0.0368927260000000 Se
   0.2731012380000000    0.9132281570000000    0.1967499760000000 Se
   0.2304448180000000    0.4060367970000000    0.8545930960000000 Se
   0.9715457980000000    0.0914748470000000    0.1138156660000000 Se
   0.8714700080000000    0.3547552070000000    0.2904899960000000 Se
   0.9202637780000000    0.1555777470000000    0.3189438960000000 Se
   0.5429611580000000    0.5950737570000000    0.5692753060000000 Se
   0.3251789880000000    0.6448222270000000    0.6726162959999999 Se
   0.5415991080000000    0.8230010670000000    0.0572326260000000 Se
   0.1791628480000000    0.9701394470000000    0.0597209160000000 Se
   0.5502865280000000    0.4808529770000000    0.6672908360000001 Se
   0.0800605280000000    0.3999246870000000    0.9033863460000000 Se
   0.6809707180000000    0.4874743770000000    0.5323405960000001 Se
   0.2048038280000000    0.1880883170000000    0.9571570860000000 Se
   0.2458409680000000    0.6316050470000000    0.7431317760000000 Se
   0.6953260280000000    0.6896974670000000    0.2430911460000000 Se
   0.4356912280000000    0.7187467670000000    0.5719355860000001 Se
   0.1057015180000000    0.6178731669999999    0.8008223560000000 Se
   0.9774963280000000    0.0281294470000000    0.3136425460000000 Se
   0.4112514580000000    0.9344656470000000    0.1389662760000000 Se
   0.8090566280000000    0.1843128770000000    0.6119416760000000 Se
   0.7974081980000000    0.4375349770000000    0.4938748760000000 Se
   0.1270651180000000    0.9034241669999999    0.4956145760000000 Se
   0.9459047680000000    0.3735262370000000    0.2163798960000000 Se
   0.9971871680000000    0.3094232270000000    0.0112521960000000 Se
   0.8739641780000000    0.2159988270000000    0.5308842760000000 Se
   0.7005477879999999    0.6440976670000000    0.4396898960000000 Se
   0.8433406280000000    0.0017315970000000    0.6266363760000000 Se
   0.0228281580000000    0.5273717170000000    0.9086882060000000 Se
   0.0509576180000000    0.8803955970000000    0.5725413360000000 Se
   0.4919547680000000    0.8912139370000000    0.2639266960000000 Se
   0.9262142980000000    0.0922323470000000    0.5187707660000000 Se
   0.4843665680000000    0.9504489870000000    0.0625338060000000 Se
   0.5609713380000000    0.7573191570000000    0.5088587360000000 Se
   0.5933500380000000    0.2569653170000000    0.8563528360000000 Se
   0.2281210580000000    0.9735587370000000    0.4080132660000000 Se
   0.6919827880000000    0.8291139470000000    0.0084388360000000 Se
   0.8971109980000000    0.5727036870000000    0.1879260060000000 Se
   0.8971545580000000    0.4334117670000000    0.4219198360000000 Se
   0.5346705880000000    0.3853719170000000    0.8599924260000000 Se
   0.9518552880000000    0.3101808270000000    0.4162067760000000 Se
   0.3108301080000000    0.3614624270000000    0.9803098760000000 Se
   0.1272412080000000    0.8383806070000001    0.6919624460000000 Se
   0.3499780480000000    0.8634063870000001    0.5770943960000000 Se
   0.6398119680000000    0.7749426470000000    0.4395855960000000 Se
   0.0484689780000000    0.7453210870000000    0.8061235360000000 Se
   0.3231008380000000    0.5915113170000000    0.8678778260000000 Se
   0.2790794080000000    0.8406827270000000    0.6516077260000001 Se
   0.5100075480000000    0.1683978570000000    0.9599699760000000 Se
   0.4589817580000000    0.3696006270000000    0.9327581460000000 Se
   0.6398890280000000    0.4553471570000000    0.7766627160000000 Se
   0.7723683080000000    0.7845392870000000    0.1341558060000000 Se
   0.5672400980000000    0.0409495470000000    0.9546686360000000 Se
   0.3598653780000000    0.9970769770000000    0.3444257360000000 Se
   0.6407010080000000    0.8932161770000000    0.2135670760000000 Se
   0.5688944680000000    0.5922177070000000    0.7630899660000000 Se
   0.4881861980000000    0.5824320370000000    0.8306079660000000 Se
   0.2535975680000000    0.4889103470000000    0.9856110560000000 Se
   0.8458153080000000    0.6402390970000000    0.3889046660000000 Se
   0.8256227779999999    0.2749983870000000    0.7361394660000000 Se
   0.7583045180000000    0.2545269570000000    0.8166028860000000 Se
   0.9715457580000000    0.5914747170000000    0.1138159060000000 Se
   0.7648828080000000    0.4843325870000000    0.6990754060000000 Se
   0.8749322880000000    0.1563348670000000    0.7238988260000000 Se
   0.7920586180000000    0.0658341070000000    0.8317644360000001 Se
   0.4382826580000000    0.9549198070000000    0.4700183560000000 Se
   0.8930506180000000    0.3854398770000000    0.6155781360000000 Se
   0.9774962880000000    0.5281293170000000    0.3136427860000000 Se
   0.7176238579999999    0.0470630770000000    0.9058745360000000 Se
   0.8381957280000000    0.5089352470000000    0.6248351060000000 Se
   0.7210862980000000    0.8486418070000000    0.3392838560000000 Se
   0.2792385580000000    0.7068588270000000    0.8830470560000000 Se
   0.7151357680000000    0.9119872070000000    0.1394569760000000 Se
   0.3605875480000000    0.7953157370000000    0.7773401860000000 Se
   0.9202637480000000    0.6555772370000000    0.3189439660000000 Se
   0.0741099680000000    0.9632695770000000    0.7035595360000000 Se
   0.5080041380000000    0.8033568870000000    0.7265357860000000 Se
   0.2048037880000000    0.6880877970000000    0.9571571560000000 Se
   0.5894189880000000    0.9573186970000001    0.4186951360000000 Se
   0.5801466880000000    0.8275451370000000    0.6511634260000000 Se
   0.9262142680000000    0.5922318270000000    0.5187708360000000 Se
   0.7917384580000000    0.7086750570000000    0.5929365360000000 Se
   0.9227520580000000    0.7906528170000000    0.0853617060000000 Se
   0.6638537580000000    0.9760897270000000    0.3445850360000000 Se
   0.5638963880000000    0.5403370170000000    0.9568641260000000 Se
   0.8689817280000000    0.7196797470000000    0.5240720160000000 Se
   0.3048796180000000    0.9248079670000000    0.7804827560000001 Se
   0.8714700480000001    0.8547553369999999    0.2904897560000000 Se
   0.6698042780000000    0.9127443270000000    0.5444119160000001 Se
   0.8450135780000000    0.4431307270000000    0.8231217960000000 Se
   0.8236502780000000    0.2204373870000000    0.9290268760000000 Se
   0.2304448580000000    0.9060369370000000    0.8545928560000000 Se
   0.7840961880000000    0.5699509770000000    0.8284361160000000 Se
   0.5100075980000000    0.6683979870000000    0.9599697460000000 Se
   0.7867659480000000    0.3346503770000000    0.9481428260000000 Se
   0.0800604880000000    0.8999241670000000    0.9033864160000000 Se
   0.7180447280000000    0.5420061370000000    0.9095705660000000 Se
   0.9971872080000000    0.8094233669999999    0.0112519560000000 Se
   0.5937399480000000    0.7541118270000000    0.8538365959999999 Se
   0.9459048080000000    0.8735263670000000    0.2163796560000000 Se
   0.8749322580000000    0.6563343470000000    0.7238988960000000 Se
   0.9518553380000000    0.8101809670000000    0.4162065360000000 Se
   0.8201880380000000    0.9188578570000000    0.4956178160000000 Se
   0.9740345680000000    0.2265494970000000    0.8802336260000000 Se
   0.7395473880000000    0.7734161070000000    0.7950794560000000 Se
   0.3108301480000000    0.8614625570000000    0.9803096360000000 Se
   0.9996755580000000    0.4444979770000000    0.7776696360000001 Se
   0.5356485880000000    0.8863464670000000    0.8574057460000000 Se
   0.8176995680000000    0.7837824570000000    0.7292006860000000 Se
   0.4612138180000000    0.8675754369999999    0.9315158460000000 Se
   0.8946227980000000    0.9376288870000000    0.4215077160000000 Se
   0.9483934380000000    0.0086008170000000    0.9827980560000000 Se
   0.6185221180000000    0.9768470270000000    0.7495405760000000 Se
   0.9005733180000000    0.8742834870000000    0.6213345960000000 Se
   0.2535976080000000    0.9889104770000000    0.9856108160000000 Se
   0.7689058680000000    0.9829605670000000    0.7007464760000000 Se
   0.8236500879999999    0.7204370570000000    0.9290275560000000 Se
   0.9483933879999999    0.5086006870000001    0.9827982960000000 Se
   0.7664175479999999    0.8478849770000000    0.9343287360000000 Se
   0.9740344580000000    0.7265498170000000    0.8802339960000000 Se
   0.8492911580000000    0.9383861870000000    0.8264632560000000 Se
   0.9996754480000000    0.9444982970000000    0.7776700060000000 Se
