Se649
1.0
  26.0654399999999988    0.0000000000000000    0.0000000000000000
 -13.0327199999999994   22.5733320000000006    0.0000000000000000
   0.0000000000000000    0.0000000000000000   29.7814200000000007
Se
649
direct
   0.0372713700000000    0.0372715630000000    0.1111110100000000 Se
   0.1293953600000000    0.1666665430000000    0.1666665300000000 Se
   0.0372713700000000    0.0372715630000000    0.2777775600000000 Se
   0.2039383600000000    0.2039380430000000    0.1111110100000000 Se
   0.2960618500000000    0.1666665530000000    0.1666665300000000 Se
   0.2039383600000000    0.2039380430000000    0.2777775600000000 Se
   0.0372713700000000    0.0372715630000000    0.4444446000000000 Se
   0.1293953700000000    0.3333335230000000    0.3333330700000000 Se
   0.4627283300000000    0.1666665530000000    0.1666665300000000 Se
   0.2039383600000000    0.2039380430000000    0.4444446000000000 Se
   0.3706048400000000    0.3706050230000000    0.1111110100000000 Se
   0.3714954700000000    0.3708361730000000    0.2769698400000000 Se
   0.0372713700000000    0.0372715630000000    0.6111111500000000 Se
   0.6293953200000000    0.1666665630000000    0.1666665300000000 Se
   0.2039383600000000    0.2039380430000000    0.6111111500000000 Se
   0.1293953600000000    0.4999999930000000    0.5000001200000000 Se
   0.2786872500000000    0.5003630230000000    0.4998968800000000 Se
   0.5372713300000000    0.5372715030000000    0.1111110100000000 Se
   0.0372713700000000    0.0372715630000000    0.7777776900000000 Se
   0.6293953200000000    0.3333335330000000    0.3333330700000000 Se
   0.5371538300000001    0.5369531730000000    0.2782610000000000 Se
   0.2039383600000000    0.2039380430000000    0.7777776900000000 Se
   0.7960618000000000    0.1666665630000000    0.1666665300000000 Se
   0.7960618100000000    0.3333335430000000    0.3333330700000000 Se
   0.3706048400000000    0.3706050230000000    0.7777776900000000 Se
   0.0372713700000000    0.0372715630000000    0.9444447400000000 Se
   0.6298222700000000    0.4999807830000000    0.4999897000000000 Se
   0.1293953600000000    0.6666664630000000    0.6666666600000000 Se
   0.2039383600000000    0.2039380430000000    0.9444447400000000 Se
   0.9627282900000000    0.1666665730000000    0.1666665300000000 Se
   0.7039383200000000    0.7039379830000000    0.1111110100000000 Se
   0.7076984600000000    0.7078911530000001    0.2770509400000000 Se
   0.7960618000000000    0.5000000130000000    0.5000001200000000 Se
   0.9627282900000000    0.3333335430000000    0.3333330700000000 Se
   0.3706048400000000    0.3706050230000000    0.9444447400000000 Se
   0.5372713300000000    0.5372715030000000    0.7777776900000000 Se
   0.1293953700000000    0.8333334430000000    0.8333332100000000 Se
   0.9627282900000000    0.5000000230000000    0.5000001200000000 Se
   0.5372713300000000    0.5372715030000000    0.9444447400000000 Se
   0.2960618400000000    0.8333334430000000    0.8333332100000000 Se
   0.7960618100000000    0.6666664930000000    0.6666666600000000 Se
   0.8706048000000000    0.8706049630000000    0.1111110100000000 Se
   0.8706048000000000    0.8706049630000000    0.2777775600000000 Se
   0.7039383200000000    0.7039379830000000    0.7777776900000000 Se
   0.4627283300000000    0.8333334529999999    0.8333332100000000 Se
   0.8706048000000000    0.8706049630000000    0.4444446000000000 Se
   0.6293953100000000    0.8333334529999999    0.8333332100000000 Se
   0.9627282900000000    0.6666664930000000    0.6666666600000000 Se
   0.7039383200000000    0.7039379830000000    0.9444447400000000 Se
   0.8706048000000000    0.8706049630000000    0.6111111500000000 Se
   0.1293953600000000    0.9999999130000000    0.9999999800000000 Se
   0.7960618000000000    0.8333334630000000    0.8333332100000000 Se
   0.2960618500000000    0.9999999230000000    0.9999999800000000 Se
   0.8706048000000000    0.8706049630000000    0.7777776900000000 Se
   0.4627283300000000    0.9999999230000000    0.9999999800000000 Se
   0.9627282900000000    0.8333334730000000    0.8333332100000000 Se
   0.6293953200000000    0.9999999330000000    0.9999999800000000 Se
   0.8706048000000000    0.8706049630000000    0.9444447400000000 Se
   0.7960618000000000    0.9999999330000000    0.9999999800000000 Se
   0.9627282900000000    0.9999999429999999    0.9999999800000000 Se
   0.1666668600000000    0.1293950530000000    0.0555555000000000 Se
   0.0372713700000000    0.2039380330000000    0.1111110100000000 Se
   0.2039383500000000    0.0372715630000000    0.1111110100000000 Se
   0.1666668600000000    0.1293950530000000    0.2222220400000000 Se
   0.1666668600000000    0.2960620230000000    0.0555555000000000 Se
   0.0372713700000000    0.2039380330000000    0.2777775600000000 Se
   0.2039383500000000    0.0372715630000000    0.2777775600000000 Se
   0.3333333400000000    0.1293950530000000    0.0555555000000000 Se
   0.0372713800000000    0.3706050130000000    0.1111110100000000 Se
   0.3706048400000000    0.0372715730000000    0.1111110100000000 Se
   0.1293953600000000    0.1666665430000000    0.3333330700000000 Se
   0.1293953700000000    0.3333335230000000    0.1666665300000000 Se
   0.1666668600000000    0.2960620230000000    0.2222220400000000 Se
   0.3333333400000000    0.1293950530000000    0.2222220400000000 Se
   0.2039383600000000    0.3706050130000000    0.1111110100000000 Se
   0.3706048400000000    0.2039380430000000    0.1111110100000000 Se
   0.1666668600000000    0.1293950530000000    0.3888890900000000 Se
   0.3333333500000000    0.2960620330000000    0.0555555000000000 Se
   0.0372713800000000    0.3706050130000000    0.2777775600000000 Se
   0.3706048400000000    0.0372715730000000    0.2777775600000000 Se
   0.2960618500000000    0.1666665530000000    0.3333330700000000 Se
   0.2960618500000000    0.3333335230000000    0.1666665300000000 Se
   0.0372713700000000    0.2039380330000000    0.4444446000000000 Se
   0.2039383500000000    0.0372715630000000    0.4444446000000000 Se
   0.1666668600000000    0.4627285030000000    0.0555555000000000 Se
   0.3333333500000000    0.2960620330000000    0.2222220400000000 Se
   0.3706048400000000    0.2039380430000000    0.2777775600000000 Se
   0.2040120100000000    0.3720286430000000    0.2796089400000000 Se
   0.1666668600000000    0.2960620230000000    0.3888890900000000 Se
   0.4999998300000000    0.1293950630000000    0.0555555000000000 Se
   0.3333333400000000    0.1293950530000000    0.3888890900000000 Se
   0.1666668600000000    0.4627285030000000    0.2222220400000000 Se
   0.1293953600000000    0.1666665430000000    0.5000001200000000 Se
   0.1293953600000000    0.4999999930000000    0.1666665300000000 Se
   0.0372713700000000    0.5372714830000000    0.1111110100000000 Se
   0.5372713200000000    0.0372715730000000    0.1111110100000000 Se
   0.2974286800000000    0.3358978030000000    0.3329419700000000 Se
   0.4999998300000000    0.1293950630000000    0.2222220400000000 Se
   0.3333333400000000    0.4627285030000000    0.0555555000000000 Se
   0.0372713800000000    0.3706050130000000    0.4444446000000000 Se
   0.3706048400000000    0.0372715730000000    0.4444446000000000 Se
   0.4999998300000000    0.2960620330000000    0.0555555000000000 Se
   0.2039383600000000    0.5372714930000000    0.1111110100000000 Se
   0.5372713300000000    0.2039380530000000    0.1111110100000000 Se
   0.3324848200000000    0.2951166330000000    0.3877246900000000 Se
   0.4627283300000000    0.1666665530000000    0.3333330700000000 Se
   0.4627283400000000    0.3333335330000000    0.1666665300000000 Se
   0.1666668600000000    0.1293950530000000    0.5555556300000000 Se
   0.2960618500000000    0.1666665530000000    0.5000001200000000 Se
   0.2960618500000000    0.5000000030000000    0.1666665300000000 Se
   0.0372713700000000    0.5372714830000000    0.2777775600000000 Se
   0.5372713200000000    0.0372715730000000    0.2777775600000000 Se
   0.3333333400000000    0.4627285030000000    0.2222220400000000 Se
   0.3706048400000000    0.2039380430000000    0.4444446000000000 Se
   0.1293953700000000    0.3333335230000000    0.5000001200000000 Se
   0.1293953600000000    0.4999999930000000    0.3333330700000000 Se
   0.2039002800000000    0.3720588630000000    0.4455342000000000 Se
   0.4999998300000000    0.2960620330000000    0.2222220400000000 Se
   0.1666668600000000    0.4627285030000000    0.3888890900000000 Se
   0.2039383600000000    0.5372714930000000    0.2777775600000000 Se
   0.5372713300000000    0.2039380530000000    0.2777775600000000 Se
   0.0372713700000000    0.2039380330000000    0.6111111500000000 Se
   0.2039383500000000    0.0372715630000000    0.6111111500000000 Se
   0.4999998300000000    0.1293950630000000    0.3888890900000000 Se
   0.1666668600000000    0.2960620230000000    0.5555556300000000 Se
   0.1666668600000000    0.6293949730000000    0.0555555000000000 Se
   0.4588642800000000    0.3265415530000000    0.3330577700000000 Se
   0.3333333400000000    0.1293950530000000    0.5555556300000000 Se
   0.3706048400000000    0.5372714930000000    0.1111110100000000 Se
   0.5372713200000000    0.3706050230000000    0.1111110100000000 Se
   0.2931400300000000    0.3285234530000000    0.5004056400000000 Se
   0.2932912700000000    0.5013888730000000    0.3325783700000000 Se
   0.6666668100000001    0.1293950630000000    0.0555555000000000 Se
   0.4999998300000000    0.4627285130000000    0.0555555000000000 Se
   0.3687741600000000    0.3662114430000000    0.4454962000000000 Se
   0.1666668600000000    0.6293949730000000    0.2222220400000000 Se
   0.3303096700000000    0.4680113330000000    0.3911932500000000 Se
   0.0372713700000000    0.5372714830000000    0.4444446000000000 Se
   0.5372713200000000    0.0372715730000000    0.4444446000000000 Se
   0.4999998300000000    0.2960620330000000    0.3888890900000000 Se
   0.1293953600000000    0.1666665430000000    0.6666666600000000 Se
   0.1293953600000000    0.6666664630000000    0.1666665300000000 Se
   0.4627283300000000    0.1666665530000000    0.5000001200000000 Se
   0.4627283300000000    0.5000000030000000    0.1666665300000000 Se
   0.5348872200000000    0.3661819730000000    0.2785646000000000 Se
   0.3689221400000000    0.5373613430000000    0.2776682600000000 Se
   0.3303038700000000    0.2906966030000000    0.5555420300000000 Se
   0.0372713800000000    0.7039379630000000    0.1111110100000000 Se
   0.7039383100000000    0.0372715830000000    0.1111110100000000 Se
   0.3333333500000000    0.6293949830000000    0.0555555000000000 Se
   0.6666668100000001    0.1293950630000000    0.2222220400000000 Se
   0.0372713800000000    0.3706050130000000    0.6111111500000000 Se
   0.3706048400000000    0.0372715730000000    0.6111111500000000 Se
   0.4999998300000000    0.4627285130000000    0.2222220400000000 Se
   0.2039383600000000    0.5372714930000000    0.4444446000000000 Se
   0.5372713300000000    0.2039380530000000    0.4444446000000000 Se
   0.6293953200000000    0.1666665630000000    0.3333330700000000 Se
   0.6293953200000000    0.3333335330000000    0.1666665300000000 Se
   0.6666668200000000    0.2960620430000000    0.0555555000000000 Se
   0.2039383600000000    0.7039379630000000    0.1111110100000000 Se
   0.7039383100000000    0.2039380530000000    0.1111110100000000 Se
   0.1666668600000000    0.4627285030000000    0.5555556300000000 Se
   0.3706048400000000    0.2039380430000000    0.6111111500000000 Se
   0.2004610800000000    0.3695824630000000    0.6131063700000000 Se
   0.3333333500000000    0.6293949830000000    0.2222220400000000 Se
   0.2960618500000000    0.1666665530000000    0.6666666600000000 Se
   0.2960618500000000    0.6666664730000000    0.1666665300000000 Se
   0.1666668600000000    0.1293950530000000    0.7222221800000000 Se
   0.4623805100000000    0.4974535030000000    0.3329042500000000 Se
   0.1293953700000000    0.3333335230000000    0.6666666600000000 Se
   0.1293953600000000    0.6666664630000000    0.3333330700000000 Se
   0.0372713800000000    0.7039379630000000    0.2777775600000000 Se
   0.7039383100000000    0.0372715830000000    0.2777775600000000 Se
   0.1666668600000000    0.6293949730000000    0.3888890900000000 Se
   0.4999998300000000    0.1293950630000000    0.5555556300000000 Se
   0.4646239600000000    0.3306125530000000    0.5022725800000000 Se
   0.6666668200000000    0.2960620430000000    0.2222220400000000 Se
   0.4964244000000000    0.4523864330000000    0.3838659300000000 Se
   0.6666668100000001    0.1293950630000000    0.3888890900000000 Se
   0.2039383600000000    0.7039379630000000    0.2777775600000000 Se
   0.7039383100000000    0.2039380530000000    0.2777775600000000 Se
   0.3151081500000000    0.4593956030000000    0.5531196700000000 Se
   0.3557636900000000    0.5411111430000000    0.4464466200000000 Se
   0.5358584300000000    0.3678247530000000    0.4446076000000000 Se
   0.1666668600000000    0.2960620230000000    0.7222221800000000 Se
   0.3678650200000000    0.3662260730000000    0.6103076100000000 Se
   0.2949702000000000    0.3328880730000000    0.6666423000000000 Se
   0.3706048500000000    0.7039379730000001    0.1111110100000000 Se
   0.7039383100000000    0.3706050330000000    0.1111110100000000 Se
   0.4999998300000000    0.2960620330000000    0.5555556300000000 Se
   0.2977014700000000    0.6707937930000000    0.3301339700000000 Se
   0.0372713700000000    0.2039380330000000    0.7777776900000000 Se
   0.2039383500000000    0.0372715630000000    0.7777776900000000 Se
   0.4999998300000000    0.6293949830000000    0.0555555000000000 Se
   0.3333333400000000    0.1293950530000000    0.7222221800000000 Se
   0.3305844700000000    0.6304613529999999    0.3868221700000000 Se
   0.6666668100000001    0.4627285130000000    0.0555555000000000 Se
   0.0372713700000000    0.5372714830000000    0.6111111500000000 Se
   0.5372713200000000    0.0372715730000000    0.6111111500000000 Se
   0.1666668600000000    0.7960619530000000    0.0555555000000000 Se
   0.6293953200000000    0.1666665630000000    0.5000001200000000 Se
   0.6293953200000000    0.5000000130000000    0.1666665300000000 Se
   0.6666668200000000    0.2960620430000000    0.3888890900000000 Se
   0.4627283300000000    0.1666665530000000    0.6666666600000000 Se
   0.4627283400000000    0.6666664830000000    0.1666665300000000 Se
   0.4400102900000000    0.4627077330000000    0.5282383899999999 Se
   0.0372713800000000    0.7039379630000000    0.4444446000000000 Se
   0.7039383100000000    0.0372715830000000    0.4444446000000000 Se
   0.5002855300000000    0.6289717630000000    0.2229195400000000 Se
   0.2039383600000000    0.5372714930000000    0.6111111500000000 Se
   0.5372713300000000    0.2039380530000000    0.6111111500000000 Se
   0.6662190099999999    0.4620597630000000    0.2227926800000000 Se
   0.3731086200000000    0.7035210730000000    0.2752060000000000 Se
   0.7039383100000000    0.3706050330000000    0.2777775600000000 Se
   0.1666668600000000    0.7960619530000000    0.2222220400000000 Se
   0.1293953600000000    0.4999999930000000    0.6666666600000000 Se
   0.1293953600000000    0.6666664630000000    0.5000001200000000 Se
   0.8333333000000001    0.1293950730000000    0.0555555000000000 Se
   0.3337011000000000    0.2960868330000000    0.7216525400000000 Se
   0.1666668600000000    0.6293949730000000    0.5555556300000000 Se
   0.2039383600000000    0.7039379630000000    0.4444446000000000 Se
   0.7039383100000000    0.2039380530000000    0.4444446000000000 Se
   0.4764376600000000    0.5364802730000000    0.4726133300000000 Se
   0.1293953600000000    0.1666665430000000    0.8333332100000000 Se
   0.1293953700000000    0.8333334430000000    0.1666665300000000 Se
   0.0372713800000000    0.3706050130000000    0.7777776900000000 Se
   0.3706048400000000    0.0372715730000000    0.7777776900000000 Se
   0.3333333400000000    0.7960619530000000    0.0555555000000000 Se
   0.6293088200000000    0.4999665330000000    0.3323596100000000 Se
   0.6293953200000000    0.3333335330000000    0.5000001200000000 Se
   0.8333333000000001    0.1293950730000000    0.2222220400000000 Se
   0.1666668600000000    0.4627285030000000    0.7222221800000000 Se
   0.4618531400000000    0.6666178830000000    0.3334787700000000 Se
   0.6666668100000001    0.1293950630000000    0.5555556300000000 Se
   0.4659827600000000    0.3307866030000000    0.6661814200000000 Se
   0.0372713700000000    0.8706049330000000    0.1111110100000000 Se
   0.8706047900000000    0.0372715830000000    0.1111110100000000 Se
   0.5495366800000000    0.5307446030000000    0.4340262200000000 Se
   0.7960618000000000    0.1666665630000000    0.3333330700000000 Se
   0.7960618100000000    0.3333335430000000    0.1666665300000000 Se
   0.2923200200000000    0.4988321230000000    0.6671369400000000 Se
   0.2945993000000000    0.6659841230000000    0.4994126600000000 Se
   0.2039383600000000    0.3706050130000000    0.7777776900000000 Se
   0.3706048400000000    0.2039380430000000    0.7777776900000000 Se
   0.3628562400000000    0.5321462430000000    0.6085937100000000 Se
   0.8333333000000001    0.2960620430000000    0.0555555000000000 Se
   0.4999998300000000    0.1293950630000000    0.7222221800000000 Se
   0.3333333400000000    0.7960619530000000    0.2222220400000000 Se
   0.5372713300000000    0.7039379730000001    0.1111110100000000 Se
   0.7039383100000000    0.5372715030000000    0.1111110100000000 Se
   0.5419642700000000    0.3634962730000000    0.6122084100000000 Se
   0.5016634500000000    0.6332413330000000    0.3896255700000000 Se
   0.6657492900000000    0.4621239430000000    0.3880886100000000 Se
   0.2960618500000000    0.1666665530000000    0.8333332100000000 Se
   0.2960618400000000    0.8333334430000000    0.1666665300000000 Se
   0.5194589100000000    0.4693429130000000    0.5664563200000000 Se
   0.2039383600000000    0.8706049430000000    0.1111110100000000 Se
   0.8706048000000000    0.2039380630000000    0.1111110100000000 Se
   0.1666668600000000    0.7960619530000000    0.3888890900000000 Se
   0.3322533200000000    0.6283642530000000    0.5546180500000000 Se
   0.1293953700000000    0.3333335230000000    0.8333332100000000 Se
   0.1293953700000000    0.8333334430000000    0.3333330700000000 Se
   0.3689663400000000    0.7037578430000000    0.4435689200000000 Se
   0.7039383100000000    0.3706050330000000    0.4444446000000000 Se
   0.8333333000000001    0.2960620430000000    0.2222220400000000 Se
   0.1666668600000000    0.1293950530000000    0.8888892200000000 Se
   0.0372713700000000    0.8706049330000000    0.2777775600000000 Se
   0.8706047900000000    0.0372715830000000    0.2777775600000000 Se
   0.6666668200000000    0.2960620430000000    0.5555556300000000 Se
   0.6666668200000000    0.6293949930000000    0.0555555000000000 Se
   0.3316072200000000    0.4626663830000000    0.7221768000000000 Se
   0.4999998300000000    0.2960620330000000    0.7222221800000000 Se
   0.5371940500000000    0.7036127730000000    0.2783337200000000 Se
   0.7040441400000000    0.5382822330000000    0.2771709600000000 Se
   0.8333333000000001    0.1293950730000000    0.3888890900000000 Se
   0.6293953200000000    0.1666665630000000    0.6666666600000000 Se
   0.6293953200000000    0.6666664830000000    0.1666665300000000 Se
   0.0372713800000000    0.7039379630000000    0.6111111500000000 Se
   0.7039383100000000    0.0372715830000000    0.6111111500000000 Se
   0.2039383600000000    0.8706049430000000    0.2777775600000000 Se
   0.8706048000000000    0.2039380630000000    0.2777775600000000 Se
   0.4999998300000000    0.7960619630000000    0.0555555000000000 Se
   0.6666668200000000    0.6293949930000000    0.2222220400000000 Se
   0.2960618500000000    0.3333335230000000    0.8333332100000000 Se
   0.2960618400000000    0.8333334430000000    0.3333330700000000 Se
   0.0372713700000000    0.5372714830000000    0.7777776900000000 Se
   0.5372713200000000    0.0372715730000000    0.7777776900000000 Se
   0.3333333400000000    0.7960619530000000    0.3888890900000000 Se
   0.1666668600000000    0.2960620230000000    0.8888892200000000 Se
   0.3706048400000000    0.8706049430000000    0.1111110100000000 Se
   0.8706047900000000    0.3706050330000000    0.1111110100000000 Se
   0.2039383600000000    0.7039379630000000    0.6111111500000000 Se
   0.7039383100000000    0.2039380530000000    0.6111111500000000 Se
   0.7960618000000000    0.1666665630000000    0.5000001200000000 Se
   0.7960618000000000    0.5000000130000000    0.1666665300000000 Se
   0.8333333000000001    0.4627285230000000    0.0555555000000000 Se
   0.4652664600000000    0.5024552830000000    0.6672997000000001 Se
   0.4648798600000000    0.6713601030000000    0.4994560200000000 Se
   0.3333333400000000    0.1293950530000000    0.8888892200000000 Se
   0.4999032000000000    0.7920427830000000    0.2229192600000000 Se
   0.8333333000000001    0.2960620430000000    0.3888890900000000 Se
   0.0372713700000000    0.2039380330000000    0.9444447400000000 Se
   0.2039383500000000    0.0372715630000000    0.9444447400000000 Se
   0.2039383600000000    0.5372714930000000    0.7777776900000000 Se
   0.5372713300000000    0.2039380530000000    0.7777776900000000 Se
   0.4627283300000000    0.1666665530000000    0.8333332100000000 Se
   0.4627283300000000    0.8333334529999999    0.1666665300000000 Se
   0.1666668600000000    0.6293949730000000    0.7222221800000000 Se
   0.6293953200000000    0.3333335330000000    0.6666666600000000 Se
   0.0372713700000000    0.8706049330000000    0.4444446000000000 Se
   0.8706047900000000    0.0372715830000000    0.4444446000000000 Se
   0.1666668600000000    0.9627284230000001    0.0555555000000000 Se
   0.8333333000000001    0.4627285230000000    0.2222220400000000 Se
   0.1293953600000000    0.4999999930000000    0.8333332100000000 Se
   0.1293953700000000    0.8333334430000000    0.5000001200000000 Se
   0.5027920600000000    0.6337645130000000    0.5544858300000000 Se
   0.6351671200000000    0.6696706130000000    0.3338625100000000 Se
   0.6659197700000000    0.4624900430000000    0.5567284500000000 Se
   0.1666668600000000    0.7960619530000000    0.5555556300000000 Se
   0.3706048400000000    0.8706049430000000    0.2777775600000000 Se
   0.8706047900000000    0.3706050330000000    0.2777775600000000 Se
   0.2969612700000000    0.6676819730000000    0.6651720800000001 Se
   0.5443717100000000    0.5478674529999999    0.6163674500000000 Se
   0.7032013700000000    0.5375830830000000    0.4431077200000000 Se
   0.6666668100000001    0.1293950630000000    0.7222221800000000 Se
   0.5010181500000001    0.4637157330000000    0.7221562000000000 Se
   0.3333333500000000    0.2960620330000000    0.8888892200000000 Se
   0.5398061300000000    0.7088925230000001    0.4442924600000000 Se
   0.7960618100000000    0.3333335430000000    0.5000001200000000 Se
   0.7960618000000000    0.5000000130000000    0.3333330700000000 Se
   0.2039383600000000    0.8706049430000000    0.4444446000000000 Se
   0.8706048000000000    0.2039380630000000    0.4444446000000000 Se
   0.1666668600000000    0.9627284230000001    0.2222220400000000 Se
   0.3719331900000000    0.7032850430000001    0.6099290100000000 Se
   0.7039383100000000    0.3706050330000000    0.6111111500000000 Se
   0.6778960900000000    0.6361330630000001    0.3877051700000000 Se
   0.4627283400000000    0.3333335330000000    0.8333332100000000 Se
   0.4627283300000000    0.8333334529999999    0.3333330700000000 Se
   0.9999998700000000    0.1293950430000000    0.0555555000000000 Se
   0.8333333000000001    0.1293950730000000    0.5555556300000000 Se
   0.3319253700000000    0.6279860030000000    0.7204383200000000 Se
   0.4981286600000000    0.7922420130000000    0.3893926900000000 Se
   0.0372713800000000    0.3706050130000000    0.9444447400000000 Se
   0.3706048400000000    0.0372715730000000    0.9444447400000000 Se
   0.3706048400000000    0.5372714930000000    0.7777776900000000 Se
   0.5372713200000000    0.3706050230000000    0.7777776900000000 Se
   0.1666668600000000    0.4627285030000000    0.8888892200000000 Se
   0.2960618500000000    0.5000000030000000    0.8333332100000000 Se
   0.2960618400000000    0.8333334430000000    0.5000001200000000 Se
   0.3333333500000000    0.9627284330000000    0.0555555000000000 Se
   0.1293953600000000    0.9999999130000000    0.1666665300000000 Se
   0.1293953600000000    0.1666665430000000    0.9999999800000000 Se
   0.3333333400000000    0.7960619530000000    0.5555556300000000 Se
   0.6666668200000000    0.2960620430000000    0.7222221800000000 Se
   0.4999998300000000    0.1293950630000000    0.8888892200000000 Se
   0.5372713300000000    0.8706049530000000    0.1111110100000000 Se
   0.8706048000000000    0.5372715130000000    0.1111110100000000 Se
   0.8333333000000001    0.4627285230000000    0.3888890900000000 Se
   0.9627282900000000    0.1666665730000000    0.3333330700000000 Se
   0.9627282900000000    0.3333335430000000    0.1666665300000000 Se
   0.9999998700000000    0.1293950430000000    0.2222220400000000 Se
   0.2039383600000000    0.3706050130000000    0.9444447400000000 Se
   0.3706048400000000    0.2039380430000000    0.9444447400000000 Se
   0.6666668100000001    0.7960619630000000    0.0555555000000000 Se
   0.3333333500000000    0.9627284330000000    0.2222220400000000 Se
   0.9999998800000000    0.2960620230000000    0.0555555000000000 Se
   0.8333333000000001    0.2960620430000000    0.5555556300000000 Se
   0.6297380000000000    0.5001463130000000    0.6674804800000000 Se
   0.3706048400000000    0.8706049430000000    0.4444446000000000 Se
   0.8706047900000000    0.3706050330000000    0.4444446000000000 Se
   0.8333333000000001    0.6293949930000000    0.0555555000000000 Se
   0.6338087900000000    0.6691442330000000    0.4977860600000000 Se
   0.4612785400000000    0.6640275830000000    0.6669281600000000 Se
   0.0372713800000000    0.7039379630000000    0.7777776900000000 Se
   0.7039383100000000    0.0372715830000000    0.7777776900000000 Se
   0.1666668600000000    0.9627284230000001    0.3888890900000000 Se
   0.7960618000000000    0.1666665630000000    0.6666666600000000 Se
   0.7960618100000000    0.6666664930000000    0.1666665300000000 Se
   0.2960618500000000    0.9999999230000000    0.1666665300000000 Se
   0.2960618500000000    0.1666665530000000    0.9999999800000000 Se
   0.3333333400000000    0.4627285030000000    0.8888892200000000 Se
   0.6293953200000000    0.1666665630000000    0.8333332100000000 Se
   0.6293953100000000    0.8333334529999999    0.1666665300000000 Se
   0.5372713300000000    0.8706049530000000    0.2777775600000000 Se
   0.8706048000000000    0.5372715130000000    0.2777775600000000 Se
   0.1293953600000000    0.9999999130000000    0.3333330700000000 Se
   0.1293953700000000    0.3333335230000000    0.9999999800000000 Se
   0.4999998300000000    0.2960620330000000    0.8888892200000000 Se
   0.0372713700000000    0.8706049330000000    0.6111111500000000 Se
   0.8706047900000000    0.0372715830000000    0.6111111500000000 Se
   0.6696002100000000    0.7965018130000000    0.2248269600000000 Se
   0.9999998800000000    0.2960620230000000    0.2222220400000000 Se
   0.8333333000000001    0.6293949930000000    0.2222220400000000 Se
   0.2039383600000000    0.7039379630000000    0.7777776900000000 Se
   0.7039383100000000    0.2039380530000000    0.7777776900000000 Se
   0.6677853700000000    0.6319474430000001    0.5555137900000000 Se
   0.1293953600000000    0.6666664630000000    0.8333332100000000 Se
   0.1293953700000000    0.8333334430000000    0.6666666600000000 Se
   0.4627283300000000    0.5000000030000000    0.8333332100000000 Se
   0.4627283300000000    0.8333334529999999    0.5000001200000000 Se
   0.7039767600000000    0.5379693530000000    0.6117164700000000 Se
   0.5372615800000000    0.7048638030000000    0.6122715700000000 Se
   0.4999998300000000    0.6293949830000000    0.7222221800000000 Se
   0.9999998700000000    0.1293950430000000    0.3888890900000000 Se
   0.2039383600000000    0.8706049430000000    0.6111111500000000 Se
   0.8706048000000000    0.2039380630000000    0.6111111500000000 Se
   0.4999998300000000    0.9627284330000000    0.0555555000000000 Se
   0.6666668100000001    0.4627285130000000    0.7222221800000000 Se
   0.0372713700000000    0.5372714830000000    0.9444447400000000 Se
   0.5372713200000000    0.0372715730000000    0.9444447400000000 Se
   0.1666668600000000    0.7960619530000000    0.7222221800000000 Se
   0.5020967800000000    0.7904564330000000    0.5559033100000000 Se
   0.3333333500000000    0.9627284330000000    0.3888890900000000 Se
   0.7960618100000000    0.3333335430000000    0.6666666600000000 Se
   0.7960618100000000    0.6666664930000000    0.3333330700000000 Se
   0.2960618500000000    0.9999999230000000    0.3333330700000000 Se
   0.2960618500000000    0.3333335230000000    0.9999999800000000 Se
   0.6294841700000000    0.8321019629999999    0.3349571100000000 Se
   0.6293953200000000    0.3333335330000000    0.8333332100000000 Se
   0.9627282900000000    0.1666665730000000    0.5000001200000000 Se
   0.9627282900000000    0.5000000230000000    0.1666665300000000 Se
   0.7114225400000000    0.7090312030000000    0.4441336200000000 Se
   0.1666668600000000    0.6293949730000000    0.8888892200000000 Se
   0.9999998700000000    0.4627284930000000    0.0555555000000000 Se
   0.8333333000000001    0.4627285230000000    0.5555556300000000 Se
   0.2039383600000000    0.5372714930000000    0.9444447400000000 Se
   0.5372713300000000    0.2039380530000000    0.9444447400000000 Se
   0.4999998300000000    0.9627284330000000    0.2222220400000000 Se
   0.2960618500000000    0.6666664730000000    0.8333332100000000 Se
   0.2960618400000000    0.8333334430000000    0.6666666600000000 Se
   0.8333333000000001    0.1293950730000000    0.7222221800000000 Se
   0.6692823700000000    0.7970774430000001    0.3902922900000000 Se
   0.3706048500000000    0.7039379730000001    0.7777776900000000 Se
   0.7039383100000000    0.3706050330000000    0.7777776900000000 Se
   0.9999998800000000    0.2960620230000000    0.3888890900000000 Se
   0.4627283300000000    0.9999999230000000    0.1666665300000000 Se
   0.4627283300000000    0.1666665530000000    0.9999999800000000 Se
   0.8333333000000001    0.6293949930000000    0.3888890900000000 Se
   0.5372713300000000    0.8706049530000000    0.4444446000000000 Se
   0.8706048000000000    0.5372715130000000    0.4444446000000000 Se
   0.6666668100000001    0.1293950630000000    0.8888892200000000 Se
   0.4999998300000000    0.4627285130000000    0.8888892200000000 Se
   0.9999998700000000    0.4627284930000000    0.2222220400000000 Se
   0.1666668600000000    0.9627284230000001    0.5555556300000000 Se
   0.7039383100000000    0.8706049530000000    0.1111110100000000 Se
   0.8706048000000000    0.7039379830000000    0.1111110100000000 Se
   0.3333333400000000    0.7960619530000000    0.7222221800000000 Se
   0.1293953600000000    0.9999999130000000    0.5000001200000000 Se
   0.1293953600000000    0.4999999930000000    0.9999999800000000 Se
   0.3706048400000000    0.8706049430000000    0.6111111500000000 Se
   0.8706047900000000    0.3706050330000000    0.6111111500000000 Se
   0.9627282900000000    0.3333335430000000    0.5000001200000000 Se
   0.9627282900000000    0.5000000230000000    0.3333330700000000 Se
   0.3333333500000000    0.6293949830000000    0.8888892200000000 Se
   0.6319889400000001    0.6735318030000000    0.6670068200000000 Se
   0.8333333000000001    0.2960620430000000    0.7222221800000000 Se
   0.3706048400000000    0.5372714930000000    0.9444447400000000 Se
   0.5372713200000000    0.3706050230000000    0.9444447400000000 Se
   0.6666668200000000    0.2960620430000000    0.8888892200000000 Se
   0.4627283300000000    0.9999999230000000    0.3333330700000000 Se
   0.4627283400000000    0.3333335330000000    0.9999999800000000 Se
   0.9999998700000000    0.1293950430000000    0.5555556300000000 Se
   0.4999998300000000    0.9627284330000000    0.3888890900000000 Se
   0.7960618000000000    0.5000000130000000    0.6666666600000000 Se
   0.7960618100000000    0.6666664930000000    0.5000001200000000 Se
   0.7039383100000000    0.8706049530000000    0.2777775600000000 Se
   0.8706048000000000    0.7039379830000000    0.2777775600000000 Se
   0.8333333000000001    0.7960619730000000    0.0555555000000000 Se
   0.2960618500000000    0.9999999230000000    0.5000001200000000 Se
   0.2960618500000000    0.5000000030000000    0.9999999800000000 Se
   0.6293953200000000    0.5000000130000000    0.8333332100000000 Se
   0.6285427900000000    0.8338327830000000    0.5006686200000000 Se
   0.3333333500000000    0.9627284330000000    0.5555556300000000 Se
   0.4627283400000000    0.6666664830000000    0.8333332100000000 Se
   0.4627283300000000    0.8333334529999999    0.6666666600000000 Se
   0.7960618000000000    0.1666665630000000    0.8333332100000000 Se
   0.7960618000000000    0.8333334630000000    0.1666665300000000 Se
   0.0372713700000000    0.8706049330000000    0.7777776900000000 Se
   0.8706047900000000    0.0372715830000000    0.7777776900000000 Se
   0.9999998700000000    0.4627284930000000    0.3888890900000000 Se
   0.6680957700000000    0.6336266930000000    0.7215029200000000 Se
   0.7056124200000000    0.7075625830000000    0.6107095299999999 Se
   0.6666668200000000    0.9627284430000000    0.0555555000000000 Se
   0.8333333000000001    0.7960619730000000    0.2222220400000000 Se
   0.6652871700000000    0.7961526930000000    0.5564577100000000 Se
   0.0372713800000000    0.7039379630000000    0.9444447400000000 Se
   0.7039383100000000    0.0372715830000000    0.9444447400000000 Se
   0.5372713300000000    0.7039379730000001    0.7777776900000000 Se
   0.7039383100000000    0.5372715030000000    0.7777776900000000 Se
   0.9999998800000000    0.2960620230000000    0.5555556300000000 Se
   0.9627282900000000    0.1666665730000000    0.6666666600000000 Se
   0.9627282900000000    0.6666664930000000    0.1666665300000000 Se
   0.9999998800000000    0.6293949730000000    0.0555555000000000 Se
   0.8333333000000001    0.6293949930000000    0.5555556300000000 Se
   0.2039383600000000    0.8706049430000000    0.7777776900000000 Se
   0.8706048000000000    0.2039380630000000    0.7777776900000000 Se
   0.4999998300000000    0.7960619630000000    0.7222221800000000 Se
   0.5372713300000000    0.8706049530000000    0.6111111500000000 Se
   0.8706048000000000    0.5372715130000000    0.6111111500000000 Se
   0.6666668200000000    0.9627284430000000    0.2222220400000000 Se
   0.6293953200000000    0.9999999330000000    0.1666665300000000 Se
   0.6293953200000000    0.1666665630000000    0.9999999800000000 Se
   0.2039383600000000    0.7039379630000000    0.9444447400000000 Se
   0.7039383100000000    0.2039380530000000    0.9444447400000000 Se
   0.8333333000000001    0.4627285230000000    0.7222221800000000 Se
   0.4999998300000000    0.6293949830000000    0.8888892200000000 Se
   0.7960618100000000    0.3333335430000000    0.8333332100000000 Se
   0.7960618000000000    0.8333334630000000    0.3333330700000000 Se
   0.9999998800000000    0.6293949730000000    0.2222220400000000 Se
   0.6666668100000001    0.4627285130000000    0.8888892200000000 Se
   0.7039383100000000    0.8706049530000000    0.4444446000000000 Se
   0.8706048000000000    0.7039379830000000    0.4444446000000000 Se
   0.1666668600000000    0.7960619530000000    0.8888892200000000 Se
   0.1293953600000000    0.9999999130000000    0.6666666600000000 Se
   0.1293953600000000    0.6666664630000000    0.9999999800000000 Se
   0.4627283300000000    0.9999999230000000    0.5000001200000000 Se
   0.4627283300000000    0.5000000030000000    0.9999999800000000 Se
   0.1666668600000000    0.9627284230000001    0.7222221800000000 Se
   0.8333333000000001    0.7960619730000000    0.3888890900000000 Se
   0.9627282900000000    0.3333335430000000    0.6666666600000000 Se
   0.9627282900000000    0.6666664930000000    0.3333330700000000 Se
   0.4999998300000000    0.9627284330000000    0.5555556300000000 Se
   0.3706048400000000    0.8706049430000000    0.7777776900000000 Se
   0.8706047900000000    0.3706050330000000    0.7777776900000000 Se
   0.8333333000000001    0.1293950730000000    0.8888892200000000 Se
   0.6293953200000000    0.9999999330000000    0.3333330700000000 Se
   0.6293953200000000    0.3333335330000000    0.9999999800000000 Se
   0.9999998700000000    0.4627284930000000    0.5555556300000000 Se
   0.6666668200000000    0.9627284430000000    0.3888890900000000 Se
   0.3706048500000000    0.7039379730000001    0.9444447400000000 Se
   0.7039383100000000    0.3706050330000000    0.9444447400000000 Se
   0.6272496400000001    0.8294707830000000    0.6698105400000000 Se
   0.2960618500000000    0.9999999230000000    0.6666666600000000 Se
   0.2960618500000000    0.6666664730000000    0.9999999800000000 Se
   0.3333333400000000    0.7960619530000000    0.8888892200000000 Se
   0.6293953200000000    0.6666664830000000    0.8333332100000000 Se
   0.9999998700000000    0.1293950430000000    0.7222221800000000 Se
   0.9999998800000000    0.6293949730000000    0.3888890900000000 Se
   0.3333333500000000    0.9627284330000000    0.7222221800000000 Se
   0.8333333000000001    0.2960620430000000    0.8888892200000000 Se
   0.7960618000000000    0.5000000130000000    0.8333332100000000 Se
   0.7960618000000000    0.8333334630000000    0.5000001200000000 Se
   0.6666668100000001    0.7960619630000000    0.7222221800000000 Se
   0.9999998800000000    0.2960620230000000    0.7222221800000000 Se
   0.8333333000000001    0.6293949930000000    0.7222221800000000 Se
   0.9627282900000000    0.5000000230000000    0.6666666600000000 Se
   0.9627282900000000    0.6666664930000000    0.5000001200000000 Se
   0.8333333000000001    0.9627284430000000    0.0555555000000000 Se
   0.7039383100000000    0.8706049530000000    0.6111111500000000 Se
   0.8706048000000000    0.7039379830000000    0.6111111500000000 Se
   0.6666668200000000    0.6293949930000000    0.8888892200000000 Se
   0.9999998700000000    0.7960619430000000    0.0555555000000000 Se
   0.8333333000000001    0.7960619730000000    0.5555556300000000 Se
   0.6293953200000000    0.9999999330000000    0.5000001200000000 Se
   0.6293953200000000    0.5000000130000000    0.9999999800000000 Se
   0.9627282900000000    0.1666665730000000    0.8333332100000000 Se
   0.9627282900000000    0.8333334730000000    0.1666665300000000 Se
   0.0372713700000000    0.8706049330000000    0.9444447400000000 Se
   0.5372713300000000    0.8706049530000000    0.7777776900000000 Se
   0.8706047900000000    0.0372715830000000    0.9444447400000000 Se
   0.8706048000000000    0.5372715130000000    0.7777776900000000 Se
   0.4627283300000000    0.9999999230000000    0.6666666600000000 Se
   0.4627283400000000    0.6666664830000000    0.9999999800000000 Se
   0.7960618000000000    0.9999999330000000    0.1666665300000000 Se
   0.7960618000000000    0.1666665630000000    0.9999999800000000 Se
   0.8333333000000001    0.9627284430000000    0.2222220400000000 Se
   0.4999998300000000    0.7960619630000000    0.8888892200000000 Se
   0.5372713300000000    0.7039379730000001    0.9444447400000000 Se
   0.7039383100000000    0.5372715030000000    0.9444447400000000 Se
   0.6666668200000000    0.9627284430000000    0.5555556300000000 Se
   0.9999998700000000    0.7960619430000000    0.2222220400000000 Se
   0.2039383600000000    0.8706049430000000    0.9444447400000000 Se
   0.8706048000000000    0.2039380630000000    0.9444447400000000 Se
   0.4999998300000000    0.9627284330000000    0.7222221800000000 Se
   0.8333333000000001    0.4627285230000000    0.8888892200000000 Se
   0.9999998800000000    0.6293949730000000    0.5555556300000000 Se
   0.1293953600000000    0.9999999130000000    0.8333332100000000 Se
   0.1293953700000000    0.8333334430000000    0.9999999800000000 Se
   0.9627282900000000    0.3333335430000000    0.8333332100000000 Se
   0.9627282900000000    0.8333334730000000    0.3333330700000000 Se
   0.9999998700000000    0.4627284930000000    0.7222221800000000 Se
   0.1666668600000000    0.9627284230000001    0.8888892200000000 Se
   0.7960618000000000    0.9999999330000000    0.3333330700000000 Se
   0.7960618100000000    0.3333335430000000    0.9999999800000000 Se
   0.7960618100000000    0.6666664930000000    0.8333332100000000 Se
   0.7960618000000000    0.8333334630000000    0.6666666600000000 Se
   0.8333333000000001    0.9627284430000000    0.3888890900000000 Se
   0.2960618500000000    0.9999999230000000    0.8333332100000000 Se
   0.2960618400000000    0.8333334430000000    0.9999999800000000 Se
   0.9999998700000000    0.7960619430000000    0.3888890900000000 Se
   0.3706048400000000    0.8706049430000000    0.9444447400000000 Se
   0.8706047900000000    0.3706050330000000    0.9444447400000000 Se
   0.9999998700000000    0.1293950430000000    0.8888892200000000 Se
   0.3333333500000000    0.9627284330000000    0.8888892200000000 Se
   0.6293953200000000    0.9999999330000000    0.6666666600000000 Se
   0.6293953200000000    0.6666664830000000    0.9999999800000000 Se
   0.8333333000000001    0.7960619730000000    0.7222221800000000 Se
   0.7039383100000000    0.8706049530000000    0.7777776900000000 Se
   0.8706048000000000    0.7039379830000000    0.7777776900000000 Se
   0.6666668100000001    0.7960619630000000    0.8888892200000000 Se
   0.9627282900000000    0.5000000230000000    0.8333332100000000 Se
   0.9627282900000000    0.8333334730000000    0.5000001200000000 Se
   0.9999998800000000    0.2960620230000000    0.8888892200000000 Se
   0.8333333000000001    0.6293949930000000    0.8888892200000000 Se
   0.7960618000000000    0.9999999330000000    0.5000001200000000 Se
   0.7960618000000000    0.5000000130000000    0.9999999800000000 Se
   0.6666668200000000    0.9627284430000000    0.7222221800000000 Se
   0.4627283300000000    0.9999999230000000    0.8333332100000000 Se
   0.4627283300000000    0.8333334529999999    0.9999999800000000 Se
   0.9999998800000000    0.6293949730000000    0.7222221800000000 Se
   0.9999998700000000    0.9627284130000000    0.0555555000000000 Se
   0.8333333000000001    0.9627284430000000    0.5555556300000000 Se
   0.5372713300000000    0.8706049530000000    0.9444447400000000 Se
   0.8706048000000000    0.5372715130000000    0.9444447400000000 Se
   0.9999998700000000    0.7960619430000000    0.5555556300000000 Se
   0.9627282900000000    0.9999999429999999    0.1666665300000000 Se
   0.9627282900000000    0.1666665730000000    0.9999999800000000 Se
   0.4999998300000000    0.9627284330000000    0.8888892200000000 Se
   0.9999998700000000    0.9627284130000000    0.2222220400000000 Se
   0.9999998700000000    0.4627284930000000    0.8888892200000000 Se
   0.9627282900000000    0.9999999429999999    0.3333330700000000 Se
   0.9627282900000000    0.3333335430000000    0.9999999800000000 Se
   0.9627282900000000    0.6666664930000000    0.8333332100000000 Se
   0.9627282900000000    0.8333334730000000    0.6666666600000000 Se
   0.9999998700000000    0.9627284130000000    0.3888890900000000 Se
   0.7960618000000000    0.9999999330000000    0.6666666600000000 Se
   0.7960618100000000    0.6666664930000000    0.9999999800000000 Se
   0.6293953200000000    0.9999999330000000    0.8333332100000000 Se
   0.6293953100000000    0.8333334529999999    0.9999999800000000 Se
   0.8333333000000001    0.7960619730000000    0.8888892200000000 Se
   0.8333333000000001    0.9627284430000000    0.7222221800000000 Se
   0.7039383100000000    0.8706049530000000    0.9444447400000000 Se
   0.8706048000000000    0.7039379830000000    0.9444447400000000 Se
   0.9999998700000000    0.7960619430000000    0.7222221800000000 Se
   0.6666668200000000    0.9627284430000000    0.8888892200000000 Se
   0.9627282900000000    0.9999999429999999    0.5000001200000000 Se
   0.9627282900000000    0.5000000230000000    0.9999999800000000 Se
   0.9999998800000000    0.6293949730000000    0.8888892200000000 Se
   0.9999998700000000    0.9627284130000000    0.5555556300000000 Se
   0.7960618000000000    0.9999999330000000    0.8333332100000000 Se
   0.7960618000000000    0.8333334630000000    0.9999999800000000 Se
   0.9627282900000000    0.9999999429999999    0.6666666600000000 Se
   0.9627282900000000    0.6666664930000000    0.9999999800000000 Se
   0.8333333000000001    0.9627284430000000    0.8888892200000000 Se
   0.9999998700000000    0.7960619430000000    0.8888892200000000 Se
   0.9999998700000000    0.9627284130000000    0.7222221800000000 Se
   0.9627282900000000    0.9999999429999999    0.8333332100000000 Se
   0.9627282900000000    0.8333334730000000    0.9999999800000000 Se
   0.9999998700000000    0.9627284130000000    0.8888892200000000 Se
