Se235
1.0
  19.5490800000000000    3.7622220000000000   -4.9635699999999998
   8.6884800000000002   15.0488879999999998    9.9271399999999996
   2.1721200000000001   -3.7622220000000000   19.8542799999999993
Se
235
direct
   0.6663417400000000    0.1111650770000000    0.1110028400000000 Se
   0.6435054000000000    0.6956859470000000    0.6438040800000000 Se
   0.0544194400000000    0.1819753070000000    0.0059504300000000 Se
   0.2023155700000000    0.0530131370000000    0.1907388200000000 Se
   0.1278808100000000    0.0342421070000000    0.2648489100000000 Se
   0.0031374300000000    0.2460778170000000    0.2110784800000000 Se
   0.2851891000000000    0.1435136970000000    0.0828736500000000 Se
   0.1565370300000000    0.2451626970000000    0.1698230900000000 Se
   0.2279565600000000    0.2709616170000000    0.0881748200000000 Se
   0.2381325400000000    0.2068215270000000    0.2920037800000000 Se
   0.1510335600000000    0.1171156470000000    0.3958668700000000 Se
   0.4355727800000000    0.1496265770000000    0.0340798500000000 Se
   0.0287785000000000    0.4640269570000000    0.1085141800000000 Se
   0.1743459500000000    0.3368042470000000    0.2925830000000000 Se
   0.0765986400000000    0.0983448070000000    0.4699775800000000 Se
   0.1040275900000000    0.3135690470000000    0.3702787600000000 Se
   0.3837030600000000    0.2159842370000000    0.2385991400000000 Se
   0.1791628600000000    0.4701397170000000    0.0597206200000000 Se
   0.4330843900000000    0.0145514470000000    0.2676622400000000 Se
   0.2491095100000000    0.4344251470000000    0.1798853600000000 Se
   0.4587255300000000    0.2325001170000000    0.1650978100000000 Se
   0.5159580700000000    0.1050521970000000    0.1597966300000000 Se
   0.1856495200000000    0.2723335270000000    0.4941190300000000 Se
   0.4094038800000000    0.4284830670000000    0.1369033100000000 Se
   0.1278807000000000    0.5342424270000000    0.2648492800000000 Se
   0.3818025200000000    0.0786541570000000    0.4727898600000000 Se
   0.4663961000000000    0.1683897270000000    0.3647045100000000 Se
   0.3308727100000000    0.2791953670000000    0.4411394400000000 Se
   0.1569839300000000    0.0537704370000000    0.5956943600000000 Se
   0.1869163400000000    0.5632664770000000    0.1819512600000000 Se
   0.4074850400000000    0.2960140870000000    0.3690922100000000 Se
   0.3073676100000000    0.0598833170000000    0.5469005700000000 Se
   0.5415991300000000    0.3230013370000000    0.0572323300000000 Se
   0.0997513900000000    0.1812183570000000    0.6009955400000000 Se
   0.1259117600000000    0.4010404370000000    0.4976278300000000 Se
   0.1989167700000000    0.4952583070000000    0.3846064500000000 Se
   0.4843665900000000    0.4504492570000000    0.0625335100000000 Se
   0.4874696500000000    0.3879776570000000    0.2615568400000000 Se
   0.0544194900000000    0.6819754370000000    0.0059501900000000 Se
   0.3392211000000000    0.5013577670000000    0.3251634100000000 Se
   0.0532756200000000    0.3805429770000000    0.5737779300000000 Se
   0.0253166300000000    0.1624473270000000    0.6751056300000000 Se
   0.2846808700000000    0.6401928970000000    0.0829487100000000 Se
   0.4244096400000000    0.5155660970000000    0.2645823100000000 Se
   0.6230250700000000    0.1717283270000000    0.3211552200000000 Se
   0.4121575700000000    0.2324501570000000    0.5673711800000000 Se
   0.1445507600000000    0.6171233970000000    0.3974754600000000 Se
   0.7407764999999999    0.1299361070000000    0.0368927400000000 Se
   0.6894944900000000    0.1940386270000000    0.2420208000000000 Se
   0.4257215600000000    0.4295773370000000    0.4559151600000000 Se
   0.0765986800000000    0.5983449470000000    0.4699773400000000 Se
   0.3564671900000000    0.3591850270000000    0.5754104900000000 Se
   0.6919828099999999    0.3291142170000000    0.0084385400000000 Se
   0.3305203600000000    0.1427568670000000    0.6779185200000000 Se
   0.0031373200000000    0.7460781470000000    0.2110788500000000 Se
   0.3877529100000000    0.0153085570000000    0.6726171800000000 Se
   0.6369839800000000    0.3938909670000000    0.2109552700000000 Se
   0.4390698700000000    0.6472691170000000    0.0386175000000000 Se
   0.1561649300000000    0.7524383970000000    0.1625915000000000 Se
   0.7467270300000000    0.0665907070000000    0.2367196200000000 Se
   0.2801914800000000    0.3447937270000000    0.6493780000000000 Se
   0.1324176800000000    0.3400843970000000    0.6985909600000000 Se
   0.7980091300000000    0.0024884570000000    0.0315910900000000 Se
   0.2325120800000000    0.7067135270000000    0.2905384500000000 Se
   0.2560855900000000    0.1239858370000000    0.7520286200000000 Se
   0.2351130400000000    0.7652659270000000    0.0923995600000000 Se
   0.5218551000000000    0.6021534370000000    0.1642607100000000 Se
   0.1057019200000000    0.1178729570000000    0.8008224100000000 Se
   0.5761280200000000    0.2204395970000000    0.5352771000000000 Se
   0.6387810700000000    0.2555928370000000    0.4526152000000000 Se
   0.5381365800000000    0.0214214370000000    0.6238233800000000 Se
   0.6125714900000000    0.0401926570000000    0.5497128500000000 Se
   0.1450493200000000    0.5530457170000000    0.5955409800000000 Se
   0.4491866800000000    0.5323014770000000    0.4534781900000000 Se
   0.7723681000000000    0.2845398470000000    0.1341553200000000 Se
   0.7151355600000000    0.4119877570000000    0.1394565000000000 Se
   0.7014984200000000    0.1287243770000000    0.4467071700000000 Se
   0.3130530900000000    0.5331659470000000    0.5728874200000000 Se
   0.0484693800000000    0.2453208770000000    0.8061235900000000 Se
   0.0685980700000000    0.4672590870000000    0.7041038400000000 Se
   0.3934086500000000    0.7154403270000000    0.2444499600000000 Se
   0.3293834200000000    0.6253018970000001    0.4780254600000000 Se
   0.5784074200000000    0.4707882770000000    0.4188288600000000 Se
   0.7181818300000000    0.3454147070000000    0.3380717800000000 Se
   0.4647454200000000    0.7319509270000000    0.1665186600000000 Se
   0.6704882400000000    0.4705315270000000    0.3434867200000000 Se
   0.1005945100000000    0.8213810570000000    0.3641661400000000 Se
   0.1770962400000000    0.8368245870000000    0.2924348100000000 Se
   0.3621328100000000    0.2969031170000000    0.7759452000000000 Se
   0.4722282400000000    0.6858621370000000    0.3633866400000000 Se
   0.0228283900000000    0.0273723970000000    0.9086875800000001 Se
   0.0926812000000000    0.6811984870000000    0.5991303100000001 Se
   0.6669874300000000    0.6143263470000000    0.1061365400000000 Se
   0.8971114000000000    0.0727034670000000    0.1879260600000000 Se
   0.1839052100000000    0.7728205170000000    0.4903561000000000 Se
   0.5915555000000000    0.3157269970000000    0.6553055900000000 Se
   0.3994031400000000    0.5024548870000000    0.6878420800000000 Se
   0.3067882100000000    0.4238388770000000    0.7822368400000000 Se
   0.8458293800000000    0.1368059870000000    0.3930541100000000 Se
   0.3364708800000000    0.0794114570000000    0.8777454000000000 Se
   0.7980090900000000    0.5024883270000000    0.0315913300000000 Se
   0.6554811100000000    0.1833454870000000    0.6571144799999999 Se
   0.0253166700000000    0.6624474570000000    0.6751053900000000 Se
   0.5198523400000000    0.2983747670000000    0.7322651400000000 Se
   0.5612893200000000    0.1042953670000000    0.7548415100000000 Se
   0.2792383400000000    0.2068593770000000    0.8830465800000000 Se
   0.6689862100000000    0.4151759970000000    0.5433887800000000 Se
   0.4868545600000000    0.0855243370000000    0.8289516099999999 Se
   0.3320739800000000    0.7987108870000000    0.4317936200000000 Se
   0.7490366500000000    0.5666509770000000    0.2322974000000000 Se
   0.6196916300000000    0.6750107170000000    0.3135736600000000 Se
   0.0287783100000000    0.9640266270000000    0.1085148600000000 Se
   0.9227524600000000    0.2906526070000000    0.0853617600000000 Se
   0.7407765500000000    0.6299362469999999    0.0368925000000000 Se
   0.2304445700000000    0.4060368270000000    0.8545926800000000 Se
   0.5390807700000000    0.5212230369999999    0.6223791300000000 Se
   0.8621750500000001    0.3585125770000000    0.2869370600000000 Se
   0.2595479700000000    0.9255650170000000    0.1854380800000000 Se
   0.9715459100000000    0.0914747370000000    0.1138156000000000 Se
   0.4089081300000000    0.8180647070000000    0.3612050900000000 Se
   0.9202641499999999    0.1555770170000000    0.3189440200000000 Se
   0.5415991000000000    0.8230008170000001    0.0572324000000000 Se
   0.1791626800000000    0.9701393870000000    0.0597213000000000 Se
   0.3313757000000000    0.6364356770000000    0.6801018000000000 Se
   0.6172634299999999    0.5392710469999999    0.5526959600000000 Se
   0.0800608900000000    0.3999239570000000    0.9033864700000001 Se
   0.2048035800000000    0.1880883470000000    0.9571566800000000 Se
   0.2560856400000000    0.6239859670000000    0.7520283800000001 Se
   0.6961389700000000    0.6921229470000000    0.2406202600000000 Se
   0.7945472200000000    0.2009086970000000    0.5981827800000000 Se
   0.1057019600000000    0.6178730870000000    0.8008221700000000 Se
   0.4096099100000000    0.7427152570000000    0.5623543900000000 Se
   0.4099316400000000    0.9316778970000000    0.1366442800000000 Se
   0.9774963000000000    0.0281291470000000    0.3136429100000000 Se
   0.8071348500000000    0.4248039770000000    0.4892965700000000 Se
   0.1298362800000000    0.8974215470000000    0.5003034700000000 Se
   0.8689821300000000    0.2196795370000000    0.5240720700000000 Se
   0.6969949200000000    0.6317078570000000    0.4400990400000000 Se
   0.9459052100000001    0.3735261570000000    0.2163797200000000 Se
   0.9971869000000000    0.3094232270000000    0.0112516000000000 Se
   0.4903169300000000    0.8871035269999999    0.2623610600000000 Se
   0.8433410000000000    0.0017308570000000    0.6266365000000000 Se
   0.0228283500000000    0.5273718770000000    0.9086876500000000 Se
   0.0509576600000000    0.8803959470000000    0.5725414000000000 Se
   0.9262146700000000    0.0922316170000000    0.5187709000000000 Se
   0.5630814600000000    0.7426260070000000    0.5171660800000000 Se
   0.4843665600000000    0.9504487370000000    0.0625335800000000 Se
   0.6017017500000000    0.2544126370000000    0.8577547700000000 Se
   0.6919827700000000    0.8291136970000000    0.0084386100000000 Se
   0.6158844300000000    0.4773809770000000    0.7487101500000000 Se
   0.8971114400000000    0.5727036070000000    0.1879258200000000 Se
   0.8946232000000000    0.4376286670000000    0.4215077700000000 Se
   0.2082659500000000    0.9896675370000000    0.3905661300000000 Se
   0.9518557400000000    0.3101807470000000    0.4162065900000000 Se
   0.6389911900000000    0.7601487370000000    0.4443582900000000 Se
   0.3108301700000000    0.3614628270000000    0.9803093400000000 Se
   0.5454232600000000    0.3815960370000000    0.8640453800000000 Se
   0.1313429500000000    0.8358215670000000    0.6982581800000000 Se
   0.3545738700000000    0.8650920070000000    0.5756928600000000 Se
   0.0484694200000000    0.7453210070000000    0.8061233500000000 Se
   0.2817266300000000    0.8419344470000000    0.6494643900000000 Se
   0.5100073100000000    0.1683978870000000    0.9599695700000000 Se
   0.4612135300000000    0.3675753370000000    0.9315156700000000 Se
   0.3364709300000000    0.5794115970000000    0.8777451600000000 Se
   0.7723680600000000    0.7845393270000000    0.1341553900000000 Se
   0.5672397000000000    0.0409497770000000    0.9546688300000000 Se
   0.3586496300000000    0.9957804170000000    0.3417723400000000 Se
   0.5570799400000001    0.6058239570000000    0.7521643099999999 Se
   0.6407006100000000    0.8932164070000000    0.2135672700000000 Se
   0.4868546000000000    0.5855244770000000    0.8289513700000000 Se
   0.7432652000000000    0.2650112070000000    0.8033108300000000 Se
   0.2535976300000000    0.4889107470000000    0.9856105200000000 Se
   0.8458292800000000    0.6368063070000000    0.3930544800000000 Se
   0.8176999700000001    0.2837822370000000    0.7292007400000000 Se
   0.7594004800000000    0.4828158570000000    0.6997887800000000 Se
   0.9715459600000000    0.5914748770000000    0.1138153600000000 Se
   0.8749325100000001    0.1563343170000000    0.7238995600000000 Se
   0.4390349200000000    0.9512060470000000    0.4674891200000000 Se
   0.7920589800000000    0.0658337570000000    0.8317647300000000 Se
   0.9774963300000000    0.5281296670000000    0.3136428400000000 Se
   0.9005735700000000    0.3742834570000000    0.6213352599999999 Se
   0.7176242100000000    0.0470627270000000    0.9058748300000000 Se
   0.7210858999999999    0.8486420270000000    0.3392840500000000 Se
   0.8433410300000000    0.5017313770000000    0.6266364400000000 Se
   0.2792383900000000    0.7068595170000000    0.8830463400000000 Se
   0.7151355200000000    0.9119872470000000    0.1394565700000000 Se
   0.3621119200000000    0.7973600770000000    0.7751811700000000 Se
   0.9202641900000000    0.6555771470000000    0.3189437800000000 Se
   0.0741104100000000    0.9632694870000000    0.7035593600000000 Se
   0.2048034700000000    0.6880886770000000    0.9571570500000000 Se
   0.5124955900000000    0.8034729570000000    0.7263873800000000 Se
   0.5894185900000000    0.9573189170000000    0.4186953300000000 Se
   0.5888798900000000    0.8235141670000000    0.6486925800000000 Se
   0.9262145600000000    0.5922319370000000    0.5187712700000000 Se
   0.7945472600000000    0.7009088270000000    0.5981825400000000 Se
   0.9227524300000000    0.7906520870000000    0.0853618300000000 Se
   0.6638533599999999    0.9760899470000000    0.3445852300000000 Se
   0.5672401200000000    0.5409498170000000    0.9546683400000000 Se
   0.8689820300000000    0.7196798570000000    0.5240724400000000 Se
   0.3048793800000000    0.9248079970000000    0.7804823500000000 Se
   0.8714702700000000    0.8547547970000000    0.2904904900000000 Se
   0.6698038800000000    0.9127445470000000    0.5444121100000000 Se
   0.7664179500000000    0.3478847570000000    0.9343287900000000 Se
   0.8236504900000000    0.2204368370000000    0.9290276200000001 Se
   0.8492915599999999    0.4383859770000000    0.8264633100000000 Se
   0.2304444600000000    0.9060371570000000    0.8545930500000000 Se
   0.5100073500000000    0.6683980170000000    0.9599693300000000 Se
   0.0800607800000000    0.8999242770000000    0.9033868400000000 Se
   0.7176242600000000    0.5470628670000000    0.9058745900000000 Se
   0.7920590199999999    0.5658338970000000    0.8317644900000000 Se
   0.9971869500000000    0.8094233570000000    0.0112513600000000 Se
   0.5928808800000001    0.7588985870000000    0.8521041600000000 Se
   0.9459047800000000    0.8735260670000000    0.2163800300000000 Se
   0.8749325500000000    0.6563344570000000    0.7238993200000000 Se
   0.9518555500000000    0.8101804170000000    0.4162072700000000 Se
   0.8201882500000000    0.9188573070000000    0.4956185500000000 Se
   0.9740346100000000    0.2265498470000000    0.8802336900000000 Se
   0.7432652500000000    0.7650113470000000    0.8033105900000000 Se
   0.3108301300000000    0.8614623070000000    0.9803094100000000 Se
   0.9996756000000000    0.4444983270000000    0.7776696900000000 Se
   0.5356483399999999    0.8863465070000000    0.8574053300000000 Se
   0.8177000100000000    0.7837823770000000    0.7292005000000000 Se
   0.4612134200000000    0.8675756670000000    0.9315160400000000 Se
   0.8946230200000000    0.9376283370000000    0.4215084500000000 Se
   0.9483930200000000    0.0086009970000000    0.9827980800000000 Se
   0.6185218700000000    0.9768470670000000    0.7495401600000000 Se
   0.9005735400000000    0.8742829370000000    0.6213353300000000 Se
   0.2535976000000000    0.9889102270000000    0.9856105900000000 Se
   0.7689062400000000    0.9829598270000000    0.7007466000000000 Se
   0.8236505400000000    0.7204369770000000    0.9290273800000000 Se
   0.9483932100000000    0.5086013270000000    0.9827974000000000 Se
   0.7664180000000000    0.8478848970000000    0.9343285500000000 Se
   0.9740345100000000    0.7265501670000000    0.8802340600000000 Se
   0.8492915300000000    0.9383854570000000    0.8264633800000000 Se
   0.9996755000000001    0.9444986470000000    0.7776700600000001 Se
