Se233
1.0
  19.5490800000000000    3.7622220000000000   -4.9635699999999998
   8.6884800000000002   15.0488879999999998    9.9271399999999996
   2.1721200000000001   -3.7622220000000000   19.8542799999999993
Se
233
direct
   0.6663421420000000    0.1111653730000000    0.1110025640000000 Se
   0.0544193920000000    0.1819754630000000    0.0059502840000000 Se
   0.2023152020000000    0.0530128830000000    0.1907386140000000 Se
   0.1278802820000000    0.0342420430000000    0.2648493240000000 Se
   0.0031373820000000    0.2460779830000000    0.2110783440000000 Se
   0.2851888020000000    0.1435141030000000    0.0828731340000000 Se
   0.1535213520000000    0.2521911830000000    0.1622850240000000 Se
   0.2279562720000000    0.2709620230000000    0.0881743140000000 Se
   0.2339066420000000    0.2076168130000000    0.2880018040000000 Se
   0.1510330320000000    0.1171155930000000    0.3958672840000000 Se
   0.4355731720000000    0.1496268630000000    0.0340795740000000 Se
   0.0287783720000000    0.4640264630000000    0.1085143440000000 Se
   0.1766741020000000    0.3350647230000000    0.2933029840000000 Se
   0.0765985920000000    0.0983449730000000    0.4699774340000000 Se
   0.1022393420000000    0.3162936930000000    0.3674130740000000 Se
   0.3842910120000000    0.2137295730000000    0.2392082440000000 Se
   0.1791623420000000    0.4701396630000000    0.0597210240000000 Se
   0.4330848620000000    0.0145512730000000    0.2676618340000000 Se
   0.2595476320000000    0.4255652930000000    0.1854378140000000 Se
   0.4592639520000000    0.2317405130000000    0.1647588540000000 Se
   0.5159584620000000    0.1050524930000000    0.1597963540000000 Se
   0.1826246220000000    0.2717193230000000    0.4931298540000000 Se
   0.1278803320000000    0.5342421830000000    0.2648490840000000 Se
   0.4099902020000000    0.4320769530000000    0.1372289840000000 Se
   0.3818026920000000    0.0786539830000000    0.4727905040000000 Se
   0.4646763020000000    0.1691552030000000    0.3649250240000000 Se
   0.1569835620000000    0.0537701930000000    0.5956941640000000 Se
   0.2023150920000000    0.5530132129999999    0.1907389840000000 Se
   0.3335037720000000    0.2777732330000000    0.4438832240000000 Se
   0.4078981920000000    0.2962776830000000    0.3696584840000000 Se
   0.3073679320000000    0.0598829530000000    0.5469005940000000 Se
   0.5415994520000000    0.3230009730000000    0.0572323640000000 Se
   0.0997510220000000    0.1812181130000000    0.6009953340000000 Se
   0.1253920920000000    0.3991672430000000    0.4984310340000000 Se
   0.2082656220000000    0.4896678030000000    0.3905658640000000 Se
   0.4832848420000000    0.4509395230000000    0.0618625240000000 Se
   0.4912490320000000    0.3873264430000000    0.2629028140000000 Se
   0.0544194420000000    0.6819756030000000    0.0059500440000000 Se
   0.0509575720000000    0.3803959730000000    0.5725414940000000 Se
   0.0253165820000000    0.1624474930000000    0.6751054940000000 Se
   0.3605192420000000    0.4954591530000000    0.3423987440000000 Se
   0.2867477520000000    0.6433455729999999    0.0845400240000000 Se
   0.6159814720000000    0.1769089530000000    0.3167074940000000 Se
   0.4367256320000000    0.5132988130000000    0.2704654340000000 Se
   0.4143486420000000    0.2328533230000000    0.5695459840000000 Se
   0.1510330820000000    0.6171157229999999    0.3958670440000000 Se
   0.7407769020000000    0.1299364030000000    0.0368924640000000 Se
   0.6888220720000000    0.1975993430000000    0.2410139840000000 Se
   0.0765985620000000    0.5983444530000001    0.4699775040000000 Se
   0.6919831319999999    0.3291138530000000    0.0084385740000000 Se
   0.3581209920000000    0.3602591730000000    0.5748460439999999 Se
   0.3305206820000000    0.1427565030000000    0.6779185540000000 Se
   0.0031372720000000    0.7460783130000000    0.2110787140000000 Se
   0.3877532120000000    0.0153085830000000    0.6726173740000000 Se
   0.6346327320000000    0.3983296730000000    0.2084342940000000 Se
   0.4386828120000000    0.6479497730000000    0.0352100740000000 Se
   0.1539576320000000    0.7521631930000000    0.1629964840000000 Se
   0.4424674620000000    0.4512165530000000    0.4670630540000000 Se
   0.1313426120000000    0.3358218430000000    0.6982579140000000 Se
   0.2836900320000000    0.3406902930000000    0.6488652940000000 Se
   0.7467274320000000    0.0665909930000000    0.2367193440000000 Se
   0.7980094420000000    0.0024884830000000    0.0315912940000000 Se
   0.2339826920000000    0.7078541229999999    0.2887519640000000 Se
   0.2560859120000000    0.1239854730000000    0.7520286540000000 Se
   0.5630434620000000    0.2396031330000000    0.5221068940000000 Se
   0.2285987920000000    0.7710883630000001    0.0891751040000000 Se
   0.5186314920000000    0.6029831830000000    0.1618293240000000 Se
   0.1057015420000000    0.1178727030000000    0.8008222140000000 Se
   0.6343389820000001    0.2642302430000000    0.4461382840000000 Se
   0.5381368920000000    0.0214214630000000    0.6238235840000000 Se
   0.6125716520000000    0.0401924930000000    0.5497134940000000 Se
   0.1569836020000000    0.5537703230000000    0.5956939240000000 Se
   0.7723684220000000    0.2845394830000000    0.1341553540000000 Se
   0.6947818220000000    0.1371502330000000    0.4409178640000000 Se
   0.7135445620000000    0.4123387530000000    0.1386522640000000 Se
   0.3831596120000000    0.5780133629999999    0.4729909940000000 Se
   0.3078696920000000    0.5594548430000000    0.5464401740000000 Se
   0.0484693320000000    0.2453210330000000    0.8061234540000000 Se
   0.3838620020000000    0.7136895730000000    0.2379635640000000 Se
   0.0741103220000000    0.4632695230000000    0.7035594540000000 Se
   0.7138673420000000    0.3601922530000000    0.3339029140000000 Se
   0.4593367720000000    0.7317889430000000    0.1651392840000000 Se
   0.6562791520000000    0.4772682330000000    0.3452970840000000 Se
   0.4658311620000000    0.6635243730000000    0.3650249740000000 Se
   0.1022393020000000    0.8162931830000000    0.3674131440000000 Se
   0.1766740720000000    0.8350642130000000    0.2933030540000000 Se
   0.3632982220000000    0.2967725430000000    0.7746455940000000 Se
   0.0228282620000000    0.0273719030000000    0.9086877540000000 Se
   0.6666569919999999    0.6104935030000000    0.1120290740000000 Se
   0.0997510620000000    0.6812182430000000    0.6009950940000000 Se
   0.8971111020000000    0.0727038730000000    0.1879255540000000 Se
   0.3868020420000000    0.5152538530000000    0.6725454140000000 Se
   0.6441306220000000    0.1955091930000000    0.6471357440000000 Se
   0.1823442120000000    0.7724203930000000    0.4935649140000000 Se
   0.5882351420000000    0.3237946230000000    0.6515172740000000 Se
   0.3048797320000000    0.4248081530000000    0.7804823140000000 Se
   0.5144863320000000    0.3043984130000000    0.7269438840000000 Se
   0.8453413120000000    0.1385293530000000    0.3921210040000000 Se
   0.3364712020000000    0.0794110930000000    0.8777454340000000 Se
   0.7980094120000000    0.5024879630000000    0.0315913640000000 Se
   0.0253165520000000    0.6624469730000000    0.6751055640000000 Se
   0.5612896420000000    0.1042950030000000    0.7548415440000000 Se
   0.2792386620000000    0.2068590130000000    0.8830466140000000 Se
   0.6627446120000000    0.4140114030000000    0.5387242040000000 Se
   0.3355522520000000    0.7756205230000000    0.4448974240000000 Se
   0.4868548820000000    0.0855239730000000    0.8289516440000000 Se
   0.4124212520000000    0.7894167030000000    0.3726018340000000 Se
   0.7463521820000000    0.5663241730000000    0.2378529640000000 Se
   0.6157493420000000    0.6750254230000000    0.3164515740000000 Se
   0.0287782620000000    0.9640267930000000    0.1085147140000000 Se
   0.9227520920000000    0.2906523530000000    0.0853615640000000 Se
   0.5351004020000000    0.5178746130000000    0.6258575640000000 Se
   0.7416000720000000    0.6287687030000000    0.0382273040000000 Se
   0.2304448120000000    0.4060373130000000    0.8545930140000000 Se
   0.2595476720000000    0.9255654230000000    0.1854375740000000 Se
   0.6142386920000000    0.5295212330000000    0.5532024440000000 Se
   0.9715458720000000    0.0914749030000000    0.1138154540000000 Se
   0.8708021820000000    0.3544094030000000    0.2910257040000000 Se
   0.9200593920000000    0.1563732030000000    0.3180572240000000 Se
   0.5419273720000000    0.8225210330000000    0.0568040740000000 Se
   0.1791624520000000    0.9701393330000000    0.0597206540000000 Se
   0.3305207220000000    0.6427566330000000    0.6779183140000000 Se
   0.0800608420000000    0.3999241130000000    0.9033863340000000 Se
   0.2048035220000000    0.1880884730000000    0.9571563540000000 Se
   0.6897918620000000    0.6941980730000000    0.2421609640000000 Se
   0.2560858020000000    0.6239857930000000    0.7520290240000000 Se
   0.7951433620000000    0.2008697830000000    0.5983912940000000 Se
   0.4156293020000000    0.7295095029999999    0.5715308540000000 Se
   0.1057014420000000    0.6178730330000000    0.8008225839999999 Se
   0.4099320420000000    0.9316781830000000    0.1366440040000000 Se
   0.9774963920000000    0.0281295030000000    0.3136423340000000 Se
   0.1253920520000000    0.8991667230000000    0.4984311040000000 Se
   0.6953362120000000    0.6310418030000000    0.4421408840000000 Se
   0.8691601720000000    0.2193527130000000    0.5238441140000000 Se
   0.9450029220000000    0.3733139530000000    0.2165380440000000 Se
   0.8169730020000000    0.4193564430000000    0.4945808640000000 Se
   0.9971868620000000    0.3094233830000000    0.0112514640000000 Se
   0.4903173320000000    0.8871038130000000    0.2623607940000000 Se
   0.8433406220000000    0.0017309930000000    0.6266364740000000 Se
   0.0228283020000000    0.5273720330000000    0.9086875140000000 Se
   0.0509576120000000    0.8803961030000000    0.5725412540000000 Se
   0.9264340820000000    0.0920182930000000    0.5183556340000000 Se
   0.5646443920000001    0.7375421230000000    0.5223779540000000 Se
   0.4843668720000000    0.9504487530000000    0.0625337840000000 Se
   0.5935874320000000    0.2615685030000000    0.8522992540000000 Se
   0.6919830219999999    0.8291141730000000    0.0084389440000000 Se
   0.8930660820000000    0.4373227630000000    0.4220008440000000 Se
   0.8971109220000000    0.5727035430000000    0.1879262340000000 Se
   0.6169441520000000    0.4769620630000000    0.7492523040000000 Se
   0.5356486920000000    0.3863466630000000    0.8574052940000000 Se
   0.2082655720000000    0.9896676730000000    0.3905661040000000 Se
   0.9513247520000000    0.3102544830000000    0.4164878340000000 Se
   0.6380717520000000    0.7583956130000000    0.4475960240000000 Se
   0.3108298020000000    0.3614625830000000    0.9803091440000000 Se
   0.3561617120000000    0.8607051130000000    0.5753543240000000 Se
   0.1313424320000000    0.8358215130000000    0.6982585940000000 Se
   0.0484693020000000    0.7453205230000000    0.8061235140000000 Se
   0.2817267920000000    0.8419342730000000    0.6494650239999999 Se
   0.5100079420000000    0.1683978930000000    0.9599694840000000 Se
   0.4612141620000000    0.3675753430000000    0.9315155840000000 Se
   0.3364710920000000    0.5794114230000000    0.8777458040000000 Se
   0.7723683120000000    0.7845398030000000    0.1341557240000000 Se
   0.5672404820000000    0.0409499730000000    0.9546683040000000 Se
   0.3586499420000000    0.9957804330000000    0.3417725440000000 Se
   0.5612896820000000    0.6042951430000000    0.7548413040000000 Se
   0.6407010020000000    0.8932166930000000    0.2135669940000000 Se
   0.7431954320000000    0.2656194130000000    0.8023731240000000 Se
   0.4868547720000000    0.5855243030000000    0.8289520140000000 Se
   0.2535972620000000    0.4889105030000000    0.9856103240000000 Se
   0.8458289020000000    0.6368060630000000    0.3930542840000000 Se
   0.8173525020000000    0.2841183930000000    0.7278841240000000 Se
   0.9715458320000000    0.5914743830000000    0.1138155240000000 Se
   0.7680580220000000    0.4834461630000000    0.6997885540000000 Se
   0.8754892820000000    0.1559848630000000    0.7241014940000000 Se
   0.4390352320000000    0.9512060630000000    0.4674893240000000 Se
   0.6445382120000001    0.6939563030000000    0.6479336240000000 Se
   0.7918590420000000    0.0662852830000000    0.8322538940000000 Se
   0.8987903220000000    0.3750744430000000    0.6197772540000001 Se
   0.9774962120000000    0.5281291730000000    0.3136430140000000 Se
   0.7170312020000000    0.0482691230000000    0.9060956240000000 Se
   0.8429132120000000    0.5017445530000000    0.6260860940000000 Se
   0.7210862920000000    0.8486423230000000    0.3392837740000000 Se
   0.2792385520000000    0.7068593430000000    0.8830469840000000 Se
   0.7151357720000000    0.9119877230000000    0.1394569040000000 Se
   0.3621120820000000    0.7973599030000000    0.7751818140000000 Se
   0.9202636720000000    0.6555770930000000    0.3189441940000000 Se
   0.0741102820000000    0.9632693830000000    0.7035596940000000 Se
   0.2055662620000000    0.6888997330000000    0.9586612240000000 Se
   0.5124957620000000    0.8034727830000000    0.7263880140000000 Se
   0.5894189920000000    0.9573192130000000    0.4186950540000000 Se
   0.5869306720000000    0.8222436230000000    0.6522773140000000 Se
   0.9262141920000000    0.5922316930000000    0.5187710639999999 Se
   0.7945468919999999    0.7009085830000000    0.5981823440000000 Se
   0.9227519820000000    0.7906526830000000    0.0853619340000000 Se
   0.6638538220000000    0.9760897830000000    0.3445848240000000 Se
   0.5672404420000000    0.5409494530000000    0.9546683740000000 Se
   0.8689816520000000    0.7196796130000001    0.5240722440000000 Se
   0.3048795420000000    0.9248078230000000    0.7804829840000000 Se
   0.8714699720000000    0.8547552030000000    0.2904899840000000 Se
   0.6698042820000000    0.9127448430000000    0.5444118340000000 Se
   0.7664178920000000    0.3478848830000000    0.9343284740000000 Se
   0.8236504320000000    0.2204369630000000    0.9290272939999999 Se
   0.8482202720000001    0.4388924130000000    0.8257040140000000 Se
   0.2304447820000000    0.9060367930000000    0.8545930840000000 Se
   0.5132210920000000    0.6651539630000000    0.9610252740000000 Se
   0.0800604120000000    0.8999240330000000    0.9033866440000000 Se
   0.7176237320000000    0.5470628030000000    0.9058749940000000 Se
   0.7920586520000000    0.5658336430000001    0.8317642940000000 Se
   0.9971869020000000    0.8094235230000000    0.0112512240000000 Se
   0.5928810520000000    0.7588984130000000    0.8521047940000001 Se
   0.9459047320000000    0.8735262330000000    0.2163798840000000 Se
   0.8749321820000000    0.6563342130000001    0.7238991240000000 Se
   0.9518552620000000    0.8101808230000000    0.4162067640000000 Se
   0.8201879620000000    0.9188577130000000    0.4956180440000000 Se
   0.9740345620000000    0.2265500030000000    0.8802335440000000 Se
   0.7432647220000000    0.7650112930000000    0.8033110040000000 Se
   0.3108296920000000    0.8614629029999999    0.9803095140000000 Se
   0.9996755520000000    0.4444984930000000    0.7776695540000000 Se
   0.5356485120000000    0.8863463330000000    0.8574059740000000 Se
   0.8176996420000000    0.7837821330000000    0.7292003040000000 Se
   0.4617985020000000    0.8663753730000000    0.9312762440000000 Se
   0.8946227220000000    0.9376287430000000    0.4215079440000000 Se
   0.9483931220000000    0.0086013530000000    0.9827974940000000 Se
   0.6185221820000000    0.9768470830000000    0.7495403640000000 Se
   0.9005732420000000    0.8742833430000000    0.6213348240000000 Se
   0.2535972120000000    0.9889103630000000    0.9856105640000000 Se
   0.7689058519999999    0.9829599630000000    0.7007465740000000 Se
   0.8236504720000000    0.7204370930000000    0.9290270540000000 Se
   0.9483930820000001    0.5086008430000000    0.9827975640000000 Se
   0.7664179320000000    0.8478850130000000    0.9343282340000000 Se
   0.9740343820000000    0.7265496830000000    0.8802342240000000 Se
   0.8492910820000000    0.9383860530000000    0.8264634840000000 Se
   0.9996754520000000    0.9444988130000000    0.7776699240000000 Se
