Se233
1.0
  19.5490800000000000    3.7622220000000000   -4.9635699999999998
   8.6884800000000002   15.0488879999999998    9.9271399999999996
   2.1721200000000001   -3.7622220000000000   19.8542799999999993
Se
233
direct
   0.6663421400000000    0.1111653430000000    0.1110025200000000 Se
   0.0544198600000000    0.1819756030000000    0.0059502800000000 Se
   0.2023152000000000    0.0530128530000000    0.1907385700000000 Se
   0.1278803700000000    0.0342422830000000    0.2648488000000000 Se
   0.0031373900000000    0.2460779530000000    0.2110782900000000 Se
   0.2851888100000000    0.1435140730000000    0.0828730900000000 Se
   0.1535213500000000    0.2521911530000000    0.1622849700000000 Se
   0.2279562700000000    0.2709619930000000    0.0881742700000000 Se
   0.2339066400000000    0.2076167830000000    0.2880017500000000 Se
   0.1510330400000000    0.1171155630000000    0.3958672300000000 Se
   0.4355727100000000    0.1496266530000000    0.0340802600000000 Se
   0.0287783800000000    0.4640264430000000    0.1085143000000000 Se
   0.1766741000000000    0.3350647030000000    0.2933029300000000 Se
   0.0765986000000000    0.0983449430000000    0.4699773900000000 Se
   0.1022395900000000    0.3162934230000000    0.3674134000000000 Se
   0.3842910100000000    0.2137295430000000    0.2392081900000000 Se
   0.1791623400000000    0.4701396330000000    0.0597209800000000 Se
   0.4330847900000000    0.0145517030000000    0.2676619200000000 Se
   0.2595476300000000    0.4255652630000000    0.1854377600000000 Se
   0.4587259300000000    0.2325003830000000    0.1650974900000000 Se
   0.5159584699999999    0.1050524630000000    0.1597963100000000 Se
   0.1826246300000000    0.2717192930000000    0.4931298100000000 Se
   0.1278803300000000    0.5342421530000000    0.2648490400000000 Se
   0.4099320000000000    0.4316780230000000    0.1366442000000000 Se
   0.3818026900000000    0.0786539530000000    0.4727904500000000 Se
   0.4654974900000000    0.1698721030000000    0.3647835000000000 Se
   0.1569835600000000    0.0537701630000000    0.5956941100000001 Se
   0.2023150900000000    0.5530131830000000    0.1907389400000000 Se
   0.3317305900000000    0.2756303630000000    0.4451193200000000 Se
   0.4041374700000000    0.2976209330000000    0.3692850800000000 Se
   0.3073679300000000    0.0598829230000000    0.5469005500000000 Se
   0.5415994600000000    0.3230009430000000    0.0572323200000000 Se
   0.0997513500000000    0.1812184930000000    0.6009953500000000 Se
   0.1253920900000000    0.3991672130000000    0.4984309900000000 Se
   0.2082656200000000    0.4896677830000000    0.3905658200000000 Se
   0.4843669200000000    0.4504488630000000    0.0625334900000000 Se
   0.4842940800000000    0.3867382030000000    0.2607248800000000 Se
   0.0544196700000000    0.6819752830000000    0.0059509600000000 Se
   0.0509575700000000    0.3803959430000000    0.5725414500000000 Se
   0.0253165800000000    0.1624474630000000    0.6751054399999999 Se
   0.3533203800000000    0.4942415430000000    0.3425847300000000 Se
   0.2851886200000000    0.6435137430000000    0.0828737700000000 Se
   0.6150599800000000    0.1752680530000000    0.3161311800000000 Se
   0.4258043900000000    0.5134329430000000    0.2667825300000000 Se
   0.4127177700000000    0.2339344030000000    0.5693443700000000 Se
   0.1510330800000000    0.6171157030000000    0.3958669900000000 Se
   0.7407766000000000    0.1299360030000000    0.0368925400000000 Se
   0.6894948900000000    0.1940388830000000    0.2420204800000000 Se
   0.0765985600000000    0.5983444230000000    0.4699774600000000 Se
   0.3533076300000000    0.3612573830000000    0.5742999000000000 Se
   0.6964043100000000    0.3221298130000000    0.0125624300000000 Se
   0.3305206800000000    0.1427564730000000    0.6779185100000000 Se
   0.0031372800000000    0.7460782830000000    0.2110786600000000 Se
   0.3877531500000000    0.0153090130000000    0.6726174600000000 Se
   0.6407009700000000    0.3932165330000000    0.2135671900000000 Se
   0.4374489200000000    0.4504437530000000    0.4672108300000000 Se
   0.4355727600000000    0.6496267930000000    0.0340800200000000 Se
   0.1535213200000000    0.7521906330000000    0.1622850400000000 Se
   0.2811306100000000    0.3390280230000000    0.6502079500000000 Se
   0.1313426200000000    0.3358218130000000    0.6982578699999999 Se
   0.7467274300000000    0.0665909730000000    0.2367193000000000 Se
   0.7980090700000000    0.0024885430000000    0.0315914900000000 Se
   0.2339066100000000    0.7076162630000000    0.2880018200000000 Se
   0.2560859200000000    0.1239854430000000    0.7520286000000000 Se
   0.5663110300000000    0.2482186630000000    0.5197176500000000 Se
   0.2279560800000000    0.7709616630000000    0.0881749500000000 Se
   0.5228902400000000    0.5971495430000000    0.1656695100000000 Se
   0.1057018700000000    0.1178730930000000    0.8008222200000000 Se
   0.6366980400000000    0.2691959030000000    0.4408929900000000 Se
   0.5381368300000000    0.0214218930000000    0.6238236700000001 Se
   0.6125717500000000    0.0401927330000000    0.5497129600000000 Se
   0.1569836100000000    0.5537702930000000    0.5956938700000000 Se
   0.6945461100000000    0.1387756730000000    0.4384057600000000 Se
   0.7723684200000001    0.2845394530000000    0.1341553000000000 Se
   0.7151358799999999    0.4119873730000000    0.1394564800000000 Se
   0.3805114700000000    0.5766164530000000    0.4738924500000000 Se
   0.3071028500000000    0.5570525830000000    0.5486300500000000 Se
   0.3913237800000000    0.7051509630000000    0.2457033100000000 Se
   0.0484693300000000    0.2453210130000000    0.8061234000000000 Se
   0.0741103200000000    0.4632694930000000    0.7035594100000000 Se
   0.5863412800000000    0.4604050130000000    0.4145827500000000 Se
   0.7231706400000000    0.3450800430000000    0.3403300800000000 Se
   0.4628259700000000    0.7259330930000000    0.1694670900000000 Se
   0.6674910200000000    0.4717168230000000    0.3461399400000000 Se
   0.4745343900000000    0.6549414930000000    0.3728540300000000 Se
   0.1022396300000000    0.8162935630000000    0.3674131600000000 Se
   0.1766740700000000    0.8350641830000000    0.2933030000000000 Se
   0.3631266100000000    0.2963995730000000    0.7743201600000000 Se
   0.0228282000000000    0.0273723330000000    0.9086878300000000 Se
   0.6663419600000000    0.6111650130000000    0.1110031900000000 Se
   0.0997513100000000    0.6812179730000000    0.6009954199999999 Se
   0.8971111100000000    0.0727038430000000    0.1879255100000000 Se
   0.3899069200000000    0.5124841330000000    0.6733929200000000 Se
   0.6426957300000000    0.2174911530000000    0.6387993800000000 Se
   0.1826246000000000    0.7717187730000000    0.4931298800000000 Se
   0.3039904400000000    0.4237275530000000    0.7794724800000000 Se
   0.5901796100000000    0.3552519130000000    0.6365086400000000 Se
   0.5192482899999999    0.3177831530000000    0.7172336700000000 Se
   0.8458289400000000    0.1368065530000000    0.3930541700000000 Se
   0.3364712100000000    0.0794110730000000    0.8777453900000000 Se
   0.7980090300000000    0.5024884030000000    0.0315917300000000 Se
   0.6393391400000000    0.4504337430000000    0.5316107400000000 Se
   0.0253165500000000    0.6624469430000000    0.6751055100000000 Se
   0.5612896400000000    0.1042949730000000    0.7548415000000001 Se
   0.2792386700000000    0.2068589930000000    0.8830465600000000 Se
   0.3405530000000000    0.7663328230000001    0.4503457000000000 Se
   0.4127622800000000    0.7855222030000000    0.3746630700000000 Se
   0.4868548800000000    0.0855239430000000    0.8289515900000000 Se
   0.6165052100000000    0.6763798830000000    0.3162750600000000 Se
   0.7460152500000000    0.5735718730000000    0.2334431800000000 Se
   0.0287782700000000    0.9640267630000000    0.1085146700000000 Se
   0.9227521000000000    0.2906523330000000    0.0853615100000000 Se
   0.7407764900000000    0.6299363230000000    0.0368929100000000 Se
   0.2319168100000000    0.4020752730000000    0.8560283600000000 Se
   0.2595476800000000    0.9255653930000000    0.1854375200000000 Se
   0.9715458700000000    0.0914748730000000    0.1138154100000000 Se
   0.8714699299999999    0.3547550330000000    0.2904901800000000 Se
   0.9202638600000000    0.1555773930000000    0.3189434600000000 Se
   0.5415990400000000    0.8230009030000000    0.0572328000000000 Se
   0.1791623900000000    0.9701397730000000    0.0597207400000000 Se
   0.5701301200000000    0.5147007729999999    0.6229567200000000 Se
   0.3297447000000000    0.6395933930000000    0.6792464900000000 Se
   0.0800608500000000    0.3999240930000000    0.9033862900000000 Se
   0.2048037500000000    0.1880881530000000    0.9571572699999999 Se
   0.2515495800000000    0.6235411230000000    0.7496338400000000 Se
   0.6896705300000000    0.6995086430000000    0.2411904200000000 Se
   0.7921330100000000    0.2027298230000000    0.5969866500000000 Se
   0.4241264400000000    0.7160463730000000    0.5775404400000000 Se
   0.1057018400000000    0.6178725730000000    0.8008222900000000 Se
   0.4099320400000000    0.9316781629999999    0.1366439600000000 Se
   0.9774962500000000    0.0281292830000000    0.3136427200000000 Se
   0.1253920600000000    0.8991666930000000    0.4984310600000000 Se
   0.8092202100000000    0.4167635730000000    0.4973353300000000 Se
   0.6934743300000000    0.6327318430000000    0.4424293000000000 Se
   0.9459048500000000    0.3735258730000000    0.2163794700000000 Se
   0.8712592500000000    0.2140103030000000    0.5264706200000000 Se
   0.9971873200000000    0.3094235230000000    0.0112514600000000 Se
   0.4903173300000000    0.8871037830000000    0.2623607400000000 Se
   0.8433407100000000    0.0017312330000000    0.6266359500000001 Se
   0.0228283100000000    0.5273720130000000    0.9086874600000000 Se
   0.0509576200000000    0.8803960830000001    0.5725412100000000 Se
   0.5655972500000001    0.7398086130000000    0.5188093700000000 Se
   0.5936409900000000    0.2690580730000000    0.8448675800000000 Se
   0.4843668100000000    0.9504491930000000    0.0625338600000000 Se
   0.9294232400000000    0.0848545630000000    0.5237724300000000 Se
   0.8835772500000000    0.4370687930000000    0.4221493100000000 Se
   0.9444844300000000    0.3124304030000000    0.4138363800000000 Se
   0.6919827100000000    0.8291137730000000    0.0084390100000000 Se
   0.8971109200000000    0.5727035130000000    0.1879261800000000 Se
   0.2082656600000000    0.9896679130000000    0.3905655800000000 Se
   0.5387946600000000    0.3944638630000000    0.8541157800000000 Se
   0.6214659100000000    0.4774319730000000    0.7524783200000000 Se
   0.3645238500000000    0.8455358530000000    0.5815845800000000 Se
   0.3108301100000000    0.3614629130000000    0.9803097500000000 Se
   0.6397571800000000    0.7617809330000000    0.4453078400000000 Se
   0.1313424300000000    0.8358214830000000    0.6982585400000000 Se
   0.2891132800000000    0.8325024830000000    0.6551275300000000 Se
   0.0484693000000000    0.7453204930000000    0.8061234700000000 Se
   0.5100076300000000    0.1683974930000000    0.9599695499999999 Se
   0.4641565800000000    0.3723866530000000    0.9285995400000000 Se
   0.3364711000000000    0.5794113930000000    0.8777457600000000 Se
   0.7723683099999999    0.7845397730000000    0.1341556700000000 Se
   0.5672401700000000    0.0409495730000000    0.9546683700000000 Se
   0.3586500300000000    0.9957806729999999    0.3417720200000000 Se
   0.5572090400000000    0.6063367629999999    0.7555658800000000 Se
   0.6407010100000000    0.8932166630000000    0.2135669500000000 Se
   0.4846563200000000    0.5852602830000000    0.8306577400000000 Se
   0.7436084500000000    0.2637797530000000    0.8035119500000000 Se
   0.2535975700000000    0.4889108330000000    0.9856109300000000 Se
   0.8443120900000000    0.6378259430000000    0.3950890400000000 Se
   0.8193741900000000    0.2794558530000000    0.7307250100000000 Se
   0.7575362000000000    0.4834345130000000    0.6986263800000000 Se
   0.9715458400000000    0.5914743530000000    0.1138154800000000 Se
   0.8738979900000000    0.1529149930000000    0.7243768600000000 Se
   0.6425554400000000    0.6971753230000000    0.6445462600000000 Se
   0.4390353200000000    0.9512063030000000    0.4674888000000000 Se
   0.7920586100000000    0.0658334830000000    0.8317644800000000 Se
   0.8933153200000000    0.3744937230000000    0.6208600000000000 Se
   0.9749600300000000    0.5275594729999999    0.3154215100000000 Se
   0.7176237800000000    0.0470629130000000    0.9058747100000000 Se
   0.8359651500000000    0.5003799330000001    0.6274713400000000 Se
   0.7210863000000000    0.8486422930000000    0.3392837300000000 Se
   0.2792385600000000    0.7068593130000000    0.8830469300000000 Se
   0.7151357699999999    0.9119876930000000    0.1394568500000000 Se
   0.3621120900000000    0.7973598730000000    0.7751817600000001 Se
   0.9195278300000000    0.6548541329999999    0.3216140400000000 Se
   0.0741103700000000    0.9632696230000000    0.7035591700000000 Se
   0.2048037900000000    0.6880882830000000    0.9571570300000000 Se
   0.5894190000000000    0.9573191830000000    0.4186950000000000 Se
   0.5141230800000000    0.8100436230000000    0.7224597600000000 Se
   0.5894272900000000    0.8259990730000000    0.6486677500000000 Se
   0.9261846400000000    0.5895911130000000    0.5216886100000000 Se
   0.7953094200000000    0.7003630930000000    0.5999799500000000 Se
   0.9227519900000000    0.7906526530000000    0.0853618800000000 Se
   0.6638537600000000    0.9760902130000000    0.3445849100000000 Se
   0.5672400600000000    0.5409499030000000    0.9546687400000000 Se
   0.8711214700000000    0.7169473629999999    0.5272345400000000 Se
   0.3048795500000000    0.9248077930000000    0.7804829400000000 Se
   0.8714699700000000    0.8547551730000000    0.2904899400000000 Se
   0.6698042900000000    0.9127448130000000    0.5444117800000000 Se
   0.8412766699999999    0.4405310030000000    0.8224547900000000 Se
   0.7735628700000000    0.3361009930000000    0.9407840500000000 Se
   0.8268353300000000    0.2111206630000000    0.9321759800000000 Se
   0.2304447800000000    0.9060367630000000    0.8545930400000000 Se
   0.7104460600000000    0.5480737530000001    0.9032749200000000 Se
   0.7860247700000000    0.5661500830000000    0.8296895000000000 Se
   0.5100075200000000    0.6683978229999999    0.9599699200000000 Se
   0.0800607400000000    0.8999244130000000    0.9033866600000000 Se
   0.9971871300000000    0.8094231930000000    0.0112521300000000 Se
   0.5928810500000000    0.7588983830000000    0.8521047500000000 Se
   0.9459047400000000    0.8735262029999999    0.2163798400000000 Se
   0.8756914900000000    0.6529767930000000    0.7268617000000001 Se
   0.9518552600000000    0.8101808029999999    0.4162067200000000 Se
   0.8201879600000000    0.9188576930000000    0.4956179900000000 Se
   0.9740345700000000    0.2265499830000000    0.8802335000000000 Se
   0.7424559900000000    0.7665011030000000    0.8033591900000000 Se
   0.3108300700000000    0.8614623930000000    0.9803098200000000 Se
   0.9996755600000000    0.4444984630000000    0.7776695100000000 Se
   0.5356485100000000    0.8863463029999999    0.8574059300000000 Se
   0.8202746800000000    0.7806608630000000    0.7320828200000000 Se
   0.4612137500000000    0.8675752730000000    0.9315160200000000 Se
   0.8946227200000000    0.9376287230000000    0.4215079000000000 Se
   0.9483934400000000    0.0086013030000000    0.9827979300000000 Se
   0.6185221200000000    0.9768475129999999    0.7495404500000000 Se
   0.9005732500000000    0.8742833130000000    0.6213347700000000 Se
   0.2535975300000000    0.9889103130000000    0.9856109900000000 Se
   0.7689057900000000    0.9829603930000000    0.7007466600000000 Se
   0.8236500200000000    0.7204368830000000    0.9290277400000000 Se
   0.9483933900000000    0.5086011730000000    0.9827981700000000 Se
   0.7664174800000000    0.8478848030000000    0.9343289200000000 Se
   0.9740343800000000    0.7265496530000000    0.8802341800000000 Se
   0.8492910800000000    0.9383860230000000    0.8264634400000000 Se
   0.9996754500000000    0.9444987830000000    0.7776698800000000 Se
