Se647
1.0
  26.0654399999999988    0.0000000000000000    0.0000000000000000
 -13.0327199999999994   22.5733320000000006    0.0000000000000000
   0.0000000000000000    0.0000000000000000   29.7814200000000007
Se
647
direct
   0.0372715370000000    0.0372715530000000    0.1111108500000000 Se
   0.1293950270000000    0.0000000630000000    0.0000000800000000 Se
   0.1293950370000000    0.1666665430000000    0.1666663600000000 Se
   0.0372715370000000    0.0372715530000000    0.2777778900000000 Se
   0.2960620170000000    0.0000000730000000    0.0000000800000000 Se
   0.2039380170000000    0.2039380330000000    0.1111108500000000 Se
   0.2960620170000000    0.1666665430000000    0.1666663600000000 Se
   0.2039380170000000    0.2039380330000000    0.2777778900000000 Se
   0.0372715370000000    0.0372715530000000    0.4444444400000000 Se
   0.1293950270000000    0.3333335130000000    0.3333334100000000 Se
   0.4627285070000000    0.1666665530000000    0.1666663600000000 Se
   0.2039380170000000    0.2039380330000000    0.4444444400000000 Se
   0.3706050070000000    0.3706050130000000    0.1111108500000000 Se
   0.3756968270000000    0.3762050630000000    0.2779033900000000 Se
   0.0372715370000000    0.0372715530000000    0.6111109800000000 Se
   0.6293949870000000    0.1666665530000000    0.1666663600000000 Se
   0.2039380170000000    0.2039380330000000    0.6111109800000000 Se
   0.1293950370000000    0.4999999930000000    0.4999999500000000 Se
   0.5372714870000000    0.5372714930000000    0.1111108500000000 Se
   0.0372715370000000    0.0372715530000000    0.7777780200000000 Se
   0.6293949870000000    0.3333335330000000    0.3333334100000000 Se
   0.5394731870000000    0.5388354430000000    0.2769405300000000 Se
   0.2039380170000000    0.2039380330000000    0.7777780200000000 Se
   0.7960619770000000    0.1666665630000000    0.1666663600000000 Se
   0.5150894170000000    0.5148278730000000    0.4535508000000000 Se
   0.7960619670000000    0.3333335330000000    0.3333334100000000 Se
   0.6042202169999999    0.4995378330000000    0.4999487100000000 Se
   0.3706050070000000    0.3706050130000000    0.7777780200000000 Se
   0.0372715370000000    0.0372715530000000    0.9444445700000000 Se
   0.1293950270000000    0.6666664630000000    0.6666664900000000 Se
   0.2039380170000000    0.2039380330000000    0.9444445700000000 Se
   0.2960620170000000    0.6666664730000000    0.6666664900000000 Se
   0.9627284570000000    0.1666665630000000    0.1666663600000000 Se
   0.7039379770000000    0.7039379730000001    0.1111108500000000 Se
   0.7960619770000000    0.5000000130000000    0.4999999500000000 Se
   0.9627284570000000    0.3333335430000000    0.3333334100000000 Se
   0.3706050070000000    0.3706050130000000    0.9444445700000000 Se
   0.5372714870000000    0.5372714930000000    0.7777780200000000 Se
   0.1293950270000000    0.8333334330000000    0.8333335400000000 Se
   0.9627284570000000    0.5000000130000000    0.4999999500000000 Se
   0.5372714870000000    0.5372714930000000    0.9444445700000000 Se
   0.2960620170000000    0.8333334430000000    0.8333335400000000 Se
   0.7960619670000000    0.6666664830000000    0.6666664900000000 Se
   0.8706049570000000    0.8706049530000000    0.1111108500000000 Se
   0.8706049570000000    0.8706049530000000    0.2777778900000000 Se
   0.7039379770000000    0.7039379730000001    0.7777780200000000 Se
   0.4627285070000000    0.8333334529999999    0.8333335400000000 Se
   0.8706049570000000    0.8706049530000000    0.4444444400000000 Se
   0.6293949870000000    0.8333334529999999    0.8333335400000000 Se
   0.9627284570000000    0.6666664930000000    0.6666664900000000 Se
   0.7039379770000000    0.7039379730000001    0.9444445700000000 Se
   0.8706049570000000    0.8706049530000000    0.6111109800000000 Se
   0.7960619770000000    0.8333334630000000    0.8333335400000000 Se
   0.8706049570000000    0.8706049530000000    0.7777780200000000 Se
   0.4627284970000000    0.9999999230000000    0.9999998200000000 Se
   0.9627284570000000    0.8333334630000000    0.8333335400000000 Se
   0.6293949870000000    0.9999999330000000    0.9999998200000000 Se
   0.8706049570000000    0.8706049530000000    0.9444445700000000 Se
   0.7960619670000000    0.9999999330000000    0.9999998200000000 Se
   0.9627285370000001    0.9999999030000000    0.9999998200000000 Se
   0.0000000470000000    0.1293950430000000    0.0555553300000000 Se
   0.1666665270000000    0.1293950430000000    0.0555553300000000 Se
   0.0372715370000000    0.2039380330000000    0.1111108500000000 Se
   0.2039380270000000    0.0372715630000000    0.1111108500000000 Se
   0.0000000470000000    0.1293950430000000    0.2222223800000000 Se
   0.0000000370000000    0.2960620130000000    0.0555553300000000 Se
   0.1666665270000000    0.1293950430000000    0.2222223800000000 Se
   0.1666665270000000    0.2960620230000000    0.0555553300000000 Se
   0.0372715370000000    0.2039380330000000    0.2777778900000000 Se
   0.2039380270000000    0.0372715630000000    0.2777778900000000 Se
   0.1293950270000000    0.0000000630000000    0.3333334100000000 Se
   0.3333335170000000    0.1293950530000000    0.0555553300000000 Se
   0.0000000370000000    0.2960620130000000    0.2222223800000000 Se
   0.0372715370000000    0.3706050030000000    0.1111108500000000 Se
   0.3706050070000000    0.0372715630000000    0.1111108500000000 Se
   0.1293950370000000    0.1666665430000000    0.3333334100000000 Se
   0.1293950270000000    0.3333335130000000    0.1666663600000000 Se
   0.1666665270000000    0.2960620230000000    0.2222223800000000 Se
   0.0000000470000000    0.1293950430000000    0.3888889200000000 Se
   0.3333335170000000    0.1293950530000000    0.2222223800000000 Se
   0.2039380270000000    0.3706050130000000    0.1111108500000000 Se
   0.3706050070000000    0.2039380430000000    0.1111108500000000 Se
   0.1666665270000000    0.1293950430000000    0.3888889200000000 Se
   0.2960620170000000    0.0000000730000000    0.3333334100000000 Se
   0.3333335070000000    0.2960620230000000    0.0555553300000000 Se
   0.0372715370000000    0.3706050030000000    0.2777778900000000 Se
   0.3706050070000000    0.0372715630000000    0.2777778900000000 Se
   0.0000000470000000    0.4627284930000000    0.0555553300000000 Se
   0.2960620170000000    0.1666665430000000    0.3333334100000000 Se
   0.2960620170000000    0.3333335230000000    0.1666663600000000 Se
   0.0000000370000000    0.2960620130000000    0.3888889200000000 Se
   0.0372715370000000    0.2039380330000000    0.4444444400000000 Se
   0.2039380270000000    0.0372715630000000    0.4444444400000000 Se
   0.1666665270000000    0.4627284930000000    0.0555553300000000 Se
   0.3333335070000000    0.2960620230000000    0.2222223800000000 Se
   0.3706050070000000    0.2039380430000000    0.2777778900000000 Se
   0.2032996170000000    0.3711288830000000    0.2777856900000000 Se
   0.0000000470000000    0.4627284930000000    0.2222223800000000 Se
   0.1293950270000000    0.0000000630000000    0.4999999500000000 Se
   0.1684779070000000    0.2953402730000000    0.3888901400000000 Se
   0.4999999970000000    0.1293950530000000    0.0555553300000000 Se
   0.3333335170000000    0.1293950530000000    0.3888889200000000 Se
   0.1666665270000000    0.4627284930000000    0.2222223800000000 Se
   0.1293950370000000    0.1666665430000000    0.4999999500000000 Se
   0.1293950370000000    0.4999999930000000    0.1666663600000000 Se
   0.0372715370000000    0.5372714830000000    0.1111108500000000 Se
   0.5372714970000000    0.0372715730000000    0.1111108500000000 Se
   0.3004847970000000    0.3367951730000000    0.3333736900000000 Se
   0.4999999970000000    0.1293950530000000    0.2222223800000000 Se
   0.4627284970000000    0.0000000730000000    0.3333334100000000 Se
   0.0000000470000000    0.1293950430000000    0.5555554600000000 Se
   0.3333335170000000    0.4627285030000000    0.0555553300000000 Se
   0.0372715370000000    0.3706050030000000    0.4444444400000000 Se
   0.3706050070000000    0.0372715630000000    0.4444444400000000 Se
   0.2960620170000000    0.0000000730000000    0.4999999500000000 Se
   0.4999999970000000    0.2960620330000000    0.0555553300000000 Se
   0.2039380170000000    0.5372714830000000    0.1111108500000000 Se
   0.5372714870000000    0.2039380430000000    0.1111108500000000 Se
   0.4627285070000000    0.1666665530000000    0.3333334100000000 Se
   0.4627284970000000    0.3333335230000000    0.1666663600000000 Se
   0.1666665270000000    0.1293950430000000    0.5555554600000000 Se
   0.3389625870000000    0.3018330730000000    0.3891874800000000 Se
   0.0000000470000000    0.4627284930000000    0.3888889200000000 Se
   0.2960620170000000    0.4999999930000000    0.1666663600000000 Se
   0.0372715370000000    0.5372714830000000    0.2777778900000000 Se
   0.5372714970000000    0.0372715730000000    0.2777778900000000 Se
   0.2980539170000000    0.1686201430000000    0.5008408100000000 Se
   0.3333335170000000    0.4627285030000000    0.2222223800000000 Se
   0.2034815170000000    0.3700358830000000    0.4443103400000000 Se
   0.3706050070000000    0.2039380430000000    0.4444444400000000 Se
   0.1293950270000000    0.3333335130000000    0.4999999500000000 Se
   0.1293950370000000    0.4999999930000000    0.3333334100000000 Se
   0.4999999970000000    0.2960620330000000    0.2222223800000000 Se
   0.1666665270000000    0.4627284930000000    0.3888889200000000 Se
   0.0000000370000000    0.2960620130000000    0.5555554600000000 Se
   0.0000000370000000    0.6293949630000000    0.0555553300000000 Se
   0.2039380170000000    0.5372714830000000    0.2777778900000000 Se
   0.5372714870000000    0.2039380430000000    0.2777778900000000 Se
   0.0372715370000000    0.2039380330000000    0.6111109800000000 Se
   0.2039380270000000    0.0372715630000000    0.6111109800000000 Se
   0.4999999970000000    0.1293950530000000    0.3888889200000000 Se
   0.1688275770000000    0.2957883730000000    0.5551817800000000 Se
   0.1666665270000000    0.6293949730000000    0.0555553300000000 Se
   0.4645410570000000    0.3283333530000000    0.3335875100000000 Se
   0.3333335170000000    0.1293950530000000    0.5555554600000000 Se
   0.3706050070000000    0.5372714930000000    0.1111108500000000 Se
   0.5372714970000000    0.3706050230000000    0.1111108500000000 Se
   0.0000000370000000    0.6293949630000000    0.2222223800000000 Se
   0.2922475370000000    0.4999787430000000    0.3345736500000000 Se
   0.3033019670000000    0.3376186930000000    0.4983779700000000 Se
   0.4627284970000000    0.0000000730000000    0.4999999500000000 Se
   0.6666664870000000    0.1293950630000000    0.0555553300000000 Se
   0.4999999970000000    0.4627285030000000    0.0555553300000000 Se
   0.1666665270000000    0.6293949730000000    0.2222223800000000 Se
   0.3323750070000000    0.4637159730000000    0.3891147000000000 Se
   0.3797589070000000    0.3784985930000000    0.4433496900000000 Se
   0.0372715370000000    0.5372714830000000    0.4444444400000000 Se
   0.5372714970000000    0.0372715730000000    0.4444444400000000 Se
   0.1293950370000000    0.1666665430000000    0.6666664900000000 Se
   0.1293950270000000    0.6666664630000000    0.1666663600000000 Se
   0.5020496770000000    0.2926443830000000    0.3898058600000000 Se
   0.4627285070000000    0.1666665530000000    0.4999999500000000 Se
   0.4627285070000000    0.5000000030000000    0.1666663600000000 Se
   0.3655233870000000    0.5362506929999999    0.2780391100000000 Se
   0.5382463170000000    0.3663168430000000    0.2775692300000000 Se
   0.6293949870000000    0.0000000830000000    0.3333334100000000 Se
   0.0372715370000000    0.7039379529999999    0.1111108500000000 Se
   0.7039379870000000    0.0372715830000000    0.1111108500000000 Se
   0.3333335070000000    0.6293949730000000    0.0555553300000000 Se
   0.6666664870000000    0.1293950630000000    0.2222223800000000 Se
   0.0372715370000000    0.3706050030000000    0.6111109800000000 Se
   0.3706050070000000    0.0372715630000000    0.6111109800000000 Se
   0.4999999970000000    0.4627285030000000    0.2222223800000000 Se
   0.3407435370000000    0.3020929230000000    0.5544714800000000 Se
   0.0000000470000000    0.4627284930000000    0.5555554600000000 Se
   0.2039380170000000    0.5372714830000000    0.4444444400000000 Se
   0.5372714870000000    0.2039380430000000    0.4444444400000000 Se
   0.6293949870000000    0.1666665530000000    0.3333334100000000 Se
   0.6293949870000000    0.3333335330000000    0.1666663600000000 Se
   0.6666664770000000    0.2960620330000000    0.0555553300000000 Se
   0.0000000470000000    0.1293950430000000    0.7222225100000000 Se
   0.0000000370000000    0.6293949630000000    0.3888889200000000 Se
   0.2039380270000000    0.7039379630000000    0.1111108500000000 Se
   0.7039379770000000    0.2039380530000000    0.1111108500000000 Se
   0.1666665270000000    0.4627284930000000    0.5555554600000000 Se
   0.2042658970000000    0.3711377630000000    0.6100477600000000 Se
   0.3706050070000000    0.2039380430000000    0.6111109800000000 Se
   0.3333335070000000    0.6293949730000000    0.2222223800000000 Se
   0.2960620170000000    0.6666664730000000    0.1666663600000000 Se
   0.2981940970000000    0.1688636730000000    0.6671186300000000 Se
   0.1666665270000000    0.1293950430000000    0.7222225100000000 Se
   0.1293950270000000    0.3333335130000000    0.6666664900000000 Se
   0.1293950270000000    0.6666664630000000    0.3333334100000000 Se
   0.0372715370000000    0.7039379529999999    0.2777778900000000 Se
   0.7039379870000000    0.0372715830000000    0.2777778900000000 Se
   0.1666665270000000    0.6293949730000000    0.3888889200000000 Se
   0.4999999970000000    0.1293950530000000    0.5555554600000000 Se
   0.4644858470000000    0.3326563730000000    0.5002707900000000 Se
   0.4652969270000000    0.5026840030000000    0.3323059600000000 Se
   0.6666664770000000    0.2960620330000000    0.2222223800000000 Se
   0.2930711470000000    0.5007227730000000    0.4997282500000000 Se
   0.0000000370000000    0.2960620130000000    0.7222225100000000 Se
   0.4977702170000000    0.4599913030000000    0.3876888600000000 Se
   0.6666664870000000    0.1293950630000000    0.3888889200000000 Se
   0.2039380270000000    0.7039379630000000    0.2777778900000000 Se
   0.7039379770000000    0.2039380530000000    0.2777778900000000 Se
   0.3696712570000000    0.5360544130000000    0.4458400000000000 Se
   0.5379977970000001    0.3695010730000000    0.4442692300000000 Se
   0.3323295870000000    0.4635330730000000    0.5537651400000000 Se
   0.0000000470000000    0.7960619430000000    0.0555553300000000 Se
   0.1693017570000000    0.2972825730000000    0.7216134300000000 Se
   0.2971115870000000    0.6666208930000000    0.3349950100000000 Se
   0.3706050070000000    0.7039379630000000    0.1111108500000000 Se
   0.7039379770000000    0.3706050230000000    0.1111108500000000 Se
   0.6293949870000000    0.0000000830000000    0.4999999500000000 Se
   0.0372715370000000    0.2039380330000000    0.7777780200000000 Se
   0.2039380270000000    0.0372715630000000    0.7777780200000000 Se
   0.5022194470000000    0.2961735830000000    0.5558093200000001 Se
   0.4999999970000000    0.6293949830000000    0.0555553300000000 Se
   0.3333335170000000    0.1293950530000000    0.7222225100000000 Se
   0.3058195470000000    0.3399466730000000    0.6643699300000000 Se
   0.3332455170000000    0.6287229030000000    0.3908382400000000 Se
   0.3815380870000000    0.3790076930000000    0.6085769200000000 Se
   0.6666664870000000    0.4627285130000000    0.0555553300000000 Se
   0.0372715370000000    0.5372714830000000    0.6111109800000000 Se
   0.5372714970000000    0.0372715730000000    0.6111109800000000 Se
   0.1666665270000000    0.7960619430000000    0.0555553300000000 Se
   0.6293949870000000    0.1666665530000000    0.4999999500000000 Se
   0.6293949870000000    0.5000000030000000    0.1666663600000000 Se
   0.0000000470000000    0.7960619430000000    0.2222223800000000 Se
   0.6666664770000000    0.2960620330000000    0.3888889200000000 Se
   0.4627285070000000    0.1666665530000000    0.6666664900000000 Se
   0.4627284970000000    0.6666664730000000    0.1666663600000000 Se
   0.0372715370000000    0.7039379529999999    0.4444444400000000 Se
   0.7039379870000000    0.0372715830000000    0.4444444400000000 Se
   0.4999999970000000    0.6293949830000000    0.2222223800000000 Se
   0.2039380170000000    0.5372714830000000    0.6111109800000000 Se
   0.5372714870000000    0.2039380430000000    0.6111109800000000 Se
   0.0000000370000000    0.6293949630000000    0.5555554600000000 Se
   0.6666664870000000    0.4627285130000000    0.2222223800000000 Se
   0.3717039070000000    0.7025436130000000    0.2791963900000000 Se
   0.7039379770000000    0.3706050230000000    0.2777778900000000 Se
   0.1666665270000000    0.7960619430000000    0.2222223800000000 Se
   0.1293950270000000    0.0000000630000000    0.8333335400000000 Se
   0.1293950370000000    0.4999999930000000    0.6666664900000000 Se
   0.1293950270000000    0.6666664630000000    0.4999999500000000 Se
   0.8333334770000000    0.1293950730000000    0.0555553300000000 Se
   0.3393340170000000    0.3019301030000000    0.7216225300000000 Se
   0.1666665270000000    0.6293949730000000    0.5555554600000000 Se
   0.2039380270000000    0.7039379630000000    0.4444444400000000 Se
   0.7039379770000000    0.2039380530000000    0.4444444400000000 Se
   0.0000000470000000    0.4627284930000000    0.7222225100000000 Se
   0.1293950370000000    0.1666665430000000    0.8333335400000000 Se
   0.1293950270000000    0.8333334330000000    0.1666663600000000 Se
   0.0372715370000000    0.3706050030000000    0.7777780200000000 Se
   0.3706050070000000    0.0372715630000000    0.7777780200000000 Se
   0.6212352170000000    0.4979475330000000    0.3330998700000000 Se
   0.7960619670000000    0.0000000830000000    0.3333334100000000 Se
   0.3333335170000000    0.7960619530000000    0.0555553300000000 Se
   0.6293949870000000    0.3333335330000000    0.4999999500000000 Se
   0.8333334770000000    0.1293950730000000    0.2222223800000000 Se
   0.1666665270000000    0.4627284930000000    0.7222225100000000 Se
   0.4650494470000000    0.6594097230000000    0.3354151900000000 Se
   0.6666664870000000    0.1293950630000000    0.5555554600000000 Se
   0.0372715470000000    0.8706049330000000    0.1111108500000000 Se
   0.4651880270000000    0.3330375230000000    0.6666269100000000 Se
   0.8706049670000000    0.0372715830000000    0.1111108500000000 Se
   0.7960619770000000    0.1666665630000000    0.3333334100000000 Se
   0.7960619670000000    0.3333335330000000    0.1666663600000000 Se
   0.2925406670000000    0.5010627930000000    0.6650958700000000 Se
   0.2960620170000000    0.0000000730000000    0.8333335400000000 Se
   0.2960620170000000    0.6666664730000000    0.4999999500000000 Se
   0.4990038970000000    0.4839128530000000    0.5474052800000000 Se
   0.2039380270000000    0.3706050130000000    0.7777780200000000 Se
   0.3706050070000000    0.2039380430000000    0.7777780200000000 Se
   0.0000000470000000    0.7960619430000000    0.3888889200000000 Se
   0.8333334670000000    0.2960620430000000    0.0555553300000000 Se
   0.4999999970000000    0.1293950530000000    0.7222225100000000 Se
   0.5035100970000000    0.6223693530000000    0.3911636200000000 Se
   0.3333335170000000    0.7960619530000000    0.2222223800000000 Se
   0.3688815570000000    0.5357946630000000    0.6105522799999999 Se
   0.5372714970000000    0.7039379730000001    0.1111108500000000 Se
   0.7039379770000000    0.5372715030000000    0.1111108500000000 Se
   0.5389248870000000    0.3721700930000000    0.6103277400000000 Se
   0.6600886270000000    0.4641602830000000    0.3903883800000000 Se
   0.0000000470000000    0.1293950430000000    0.8888890500000000 Se
   0.2960620170000000    0.1666665430000000    0.8333335400000000 Se
   0.2960620170000000    0.8333334430000000    0.1666663600000000 Se
   0.2039380270000000    0.8706049330000000    0.1111108500000000 Se
   0.8706049670000000    0.2039380630000000    0.1111108500000000 Se
   0.1666665270000000    0.7960619430000000    0.3888889200000000 Se
   0.3338696570000000    0.6302029230000000    0.5564450100000000 Se
   0.1293950270000000    0.3333335130000000    0.8333335400000000 Se
   0.1293950270000000    0.8333334330000000    0.3333334100000000 Se
   0.7039379770000000    0.3706050230000000    0.4444444400000000 Se
   0.8333334670000000    0.2960620430000000    0.2222223800000000 Se
   0.3728565570000000    0.7044045130000000    0.4455142400000000 Se
   0.1666665270000000    0.1293950430000000    0.8888890500000000 Se
   0.0372715470000000    0.8706049330000000    0.2777778900000000 Se
   0.8706049670000000    0.0372715830000000    0.2777778900000000 Se
   0.6666664770000000    0.2960620330000000    0.5555554600000000 Se
   0.3280270070000000    0.4631586730000000    0.7215227900000000 Se
   0.6666664770000000    0.6293949830000000    0.0555553300000000 Se
   0.6981261570000000    0.5360983530000000    0.2783269500000000 Se
   0.5366050470000000    0.6986290230000000    0.2781758900000000 Se
   0.5006532770000000    0.2926386830000000    0.7212335700000000 Se
   0.8333334770000000    0.1293950730000000    0.3888889200000000 Se
   0.6293949870000000    0.1666665530000000    0.6666664900000000 Se
   0.6293949870000000    0.6666664830000000    0.1666663600000000 Se
   0.0372715370000000    0.7039379529999999    0.6111109800000000 Se
   0.7039379870000000    0.0372715830000000    0.6111109800000000 Se
   0.2039380270000000    0.8706049330000000    0.2777778900000000 Se
   0.8706049670000000    0.2039380630000000    0.2777778900000000 Se
   0.0000000370000000    0.2960620130000000    0.8888890500000000 Se
   0.7960619670000000    0.0000000830000000    0.4999999500000000 Se
   0.4999999970000000    0.7960619530000000    0.0555553300000000 Se
   0.6666664770000000    0.6293949830000000    0.2222223800000000 Se
   0.2960620170000000    0.3333335230000000    0.8333335400000000 Se
   0.2960620170000000    0.8333334430000000    0.3333334100000000 Se
   0.0372715370000000    0.5372714830000000    0.7777780200000000 Se
   0.5372714970000000    0.0372715730000000    0.7777780200000000 Se
   0.3333335170000000    0.7960619530000000    0.3888889200000000 Se
   0.1666665270000000    0.2960620230000000    0.8888890500000000 Se
   0.4649977270000000    0.6618886530000000    0.5013355900000001 Se
   0.3706050070000000    0.8706049430000000    0.1111108500000000 Se
   0.8706049670000000    0.3706050330000000    0.1111108500000000 Se
   0.4621682770000000    0.4974003230000000    0.6685102400000000 Se
   0.4627284970000000    0.0000000730000000    0.8333335400000000 Se
   0.2039380270000000    0.7039379630000000    0.6111109800000000 Se
   0.7039379770000000    0.2039380530000000    0.6111109800000000 Se
   0.7960619770000000    0.1666665630000000    0.4999999500000000 Se
   0.7960619770000000    0.5000000130000000    0.1666663600000000 Se
   0.8333334670000000    0.4627285130000000    0.0555553300000000 Se
   0.0000000370000000    0.6293949630000000    0.7222225100000000 Se
   0.3333335170000000    0.1293950530000000    0.8888890500000000 Se
   0.0000000370000000    0.9627284130000000    0.0555553300000000 Se
   0.4999999970000000    0.7960619530000000    0.2222223800000000 Se
   0.8333334670000000    0.2960620430000000    0.3888889200000000 Se
   0.0372715370000000    0.2039380330000000    0.9444445700000000 Se
   0.2039380270000000    0.0372715630000000    0.9444445700000000 Se
   0.2039380170000000    0.5372714830000000    0.7777780200000000 Se
   0.5372714870000000    0.2039380430000000    0.7777780200000000 Se
   0.4627285070000000    0.1666665530000000    0.8333335400000000 Se
   0.4627285070000000    0.8333334529999999    0.1666663600000000 Se
   0.0000000470000000    0.7960619430000000    0.5555554600000000 Se
   0.1666665270000000    0.6293949730000000    0.7222225100000000 Se
   0.5012253470000000    0.6214618530000000    0.5561952900000000 Se
   0.6544754570000000    0.4657044630000000    0.5530977000000000 Se
   0.6293949870000000    0.3333335330000000    0.6666664900000000 Se
   0.9627285470000000    0.1666665330000000    0.0000000800000000 Se
   0.5368807170000000    0.5397236430000000    0.6127741200000000 Se
   0.0372715470000000    0.8706049330000000    0.4444444400000000 Se
   0.8706049670000000    0.0372715830000000    0.4444444400000000 Se
   0.1666665270000000    0.9627284230000001    0.0555553300000000 Se
   0.8333334670000000    0.4627285130000000    0.2222223800000000 Se
   0.6331950070000000    0.6685846030000000    0.3326628900000000 Se
   0.6876897970000000    0.5349303730000000    0.4468029200000000 Se
   0.1293950370000000    0.4999999930000000    0.8333335400000000 Se
   0.1293950270000000    0.8333334330000000    0.4999999500000000 Se
   0.1666665270000000    0.7960619430000000    0.5555554600000000 Se
   0.3706050070000000    0.8706049430000000    0.2777778900000000 Se
   0.8706049670000000    0.3706050330000000    0.2777778900000000 Se
   0.0000000370000000    0.9627284130000000    0.2222223800000000 Se
   0.5382615970000000    0.6990202230000000    0.4454076000000000 Se
   0.6666664870000000    0.1293950630000000    0.7222225100000000 Se
   0.5008266970000000    0.4615471530000000    0.7236381100000000 Se
   0.6656557070000000    0.6275864330000001    0.3891011200000000 Se
   0.3333335070000000    0.2960620230000000    0.8888890500000000 Se
   0.7960619670000000    0.3333335330000000    0.4999999500000000 Se
   0.7960619770000000    0.5000000130000000    0.3333334100000000 Se
   0.2039380270000000    0.8706049330000000    0.4444444400000000 Se
   0.8706049670000000    0.2039380630000000    0.4444444400000000 Se
   0.0000000470000000    0.4627284930000000    0.8888890500000000 Se
   0.1666665270000000    0.9627284230000001    0.2222223800000000 Se
   0.7039379770000000    0.3706050230000000    0.6111109800000000 Se
   0.3732104870000000    0.7049379430000000    0.6118403800000000 Se
   0.4627284970000000    0.3333335230000000    0.8333335400000000 Se
   0.4627285070000000    0.8333334529999999    0.3333334100000000 Se
   0.8333334770000000    0.1293950730000000    0.5555554600000000 Se
   0.3324831170000000    0.6288638530000000    0.7228860700000000 Se
   0.0372715370000000    0.3706050030000000    0.9444445700000000 Se
   0.3706050070000000    0.0372715630000000    0.9444445700000000 Se
   0.3706050070000000    0.5372714930000000    0.7777780200000000 Se
   0.5372714970000000    0.3706050230000000    0.7777780200000000 Se
   0.1666665270000000    0.4627284930000000    0.8888890500000000 Se
   0.2960620170000000    0.4999999930000000    0.8333335400000000 Se
   0.2960620170000000    0.8333334430000000    0.4999999500000000 Se
   0.4999999970000000    0.7960619530000000    0.3888889200000000 Se
   0.3333335070000000    0.9627284230000001    0.0555553300000000 Se
   0.1293950270000000    0.9999999130000000    0.1666663600000000 Se
   0.1293950370000000    0.1666665430000000    0.9999998200000000 Se
   0.3333335170000000    0.7960619530000000    0.5555554600000000 Se
   0.6666664770000000    0.2960620330000000    0.7222225100000000 Se
   0.4999999970000000    0.1293950530000000    0.8888890500000000 Se
   0.5372714870000000    0.8706049430000000    0.1111108500000000 Se
   0.8706049570000000    0.5372715030000000    0.1111108500000000 Se
   0.8333334670000000    0.4627285130000000    0.3888889200000000 Se
   0.9627284570000000    0.1666665630000000    0.3333334100000000 Se
   0.9627284570000000    0.3333335430000000    0.1666663600000000 Se
   0.2039380270000000    0.3706050130000000    0.9444445700000000 Se
   0.3706050070000000    0.2039380430000000    0.9444445700000000 Se
   0.0000000370000000    0.9627284130000000    0.3888889200000000 Se
   0.7091551270000001    0.7069109030000000    0.2781181700000000 Se
   0.6666664870000000    0.7960619630000000    0.0555553300000000 Se
   0.6229109170000000    0.5015490830000000    0.6666549300000000 Se
   0.3333335070000000    0.9627284230000001    0.2222223800000000 Se
   0.6293949870000000    0.0000000830000000    0.8333335400000000 Se
   0.8333334670000000    0.2960620430000000    0.5555554600000000 Se
   0.3706050070000000    0.8706049430000000    0.4444444400000000 Se
   0.8706049670000000    0.3706050330000000    0.4444444400000000 Se
   0.8333334670000000    0.6293949930000000    0.0555553300000000 Se
   0.6322545570000000    0.6680369530000000    0.4992951700000000 Se
   0.4631773770000000    0.6622981030000000    0.6663944700000000 Se
   0.0372715370000000    0.7039379529999999    0.7777780200000000 Se
   0.7039379870000000    0.0372715830000000    0.7777780200000000 Se
   0.1666665270000000    0.9627284230000001    0.3888889200000000 Se
   0.7960619770000000    0.1666665630000000    0.6666664900000000 Se
   0.7960619670000000    0.6666664830000000    0.1666663600000000 Se
   0.2960620070000000    0.9999999130000000    0.1666663600000000 Se
   0.2960620170000000    0.1666665430000000    0.9999998200000000 Se
   0.3333335170000000    0.4627285030000000    0.8888890500000000 Se
   0.6293949870000000    0.1666665530000000    0.8333335400000000 Se
   0.6293949870000000    0.8333334529999999    0.1666663600000000 Se
   0.5372714870000000    0.8706049430000000    0.2777778900000000 Se
   0.8706049570000000    0.5372715030000000    0.2777778900000000 Se
   0.1293950270000000    0.3333335130000000    0.9999998200000000 Se
   0.4999999970000000    0.2960620330000000    0.8888890500000000 Se
   0.6666664870000000    0.7960619630000000    0.2222223800000000 Se
   0.0372715470000000    0.8706049330000000    0.6111109800000000 Se
   0.8706049670000000    0.0372715830000000    0.6111109800000000 Se
   0.8333334670000000    0.6293949930000000    0.2222223800000000 Se
   0.2039380270000000    0.7039379630000000    0.7777780200000000 Se
   0.7039379770000000    0.2039380530000000    0.7777780200000000 Se
   0.6958323570000000    0.5365719030000000    0.6095464800000000 Se
   0.5365089970000000    0.6979269230000000    0.6104896600000000 Se
   0.6674640570000000    0.6296576130000000    0.5552220600000000 Se
   0.0000000470000000    0.7960619430000000    0.7222225100000000 Se
   0.1293950270000000    0.6666664630000000    0.8333335400000000 Se
   0.1293950270000000    0.8333334330000000    0.6666664900000000 Se
   0.4627285070000000    0.5000000030000000    0.8333335400000000 Se
   0.4627285070000000    0.8333334529999999    0.4999999500000000 Se
   0.5000889770000000    0.6241765330000000    0.7220224300000000 Se
   0.2039380270000000    0.8706049330000000    0.6111109800000000 Se
   0.8706049670000000    0.2039380630000000    0.6111109800000000 Se
   0.6624827070000000    0.4642043130000000    0.7213913900000000 Se
   0.4999999970000000    0.9627284330000000    0.0555553300000000 Se
   0.0372715370000000    0.5372714830000000    0.9444445700000000 Se
   0.5372714970000000    0.0372715730000000    0.9444445700000000 Se
   0.1666665270000000    0.7960619430000000    0.7222225100000000 Se
   0.0000000370000000    0.6293949630000000    0.8888890500000000 Se
   0.3333335070000000    0.9627284230000001    0.3888889200000000 Se
   0.7960619670000000    0.3333335330000000    0.6666664900000000 Se
   0.7960619670000000    0.6666664830000000    0.3333334100000000 Se
   0.7064698069999999    0.7033281530000000    0.4437954700000000 Se
   0.4999999970000000    0.7960619530000000    0.5555554600000000 Se
   0.6291106370000000    0.8309724030000000    0.3335963700000000 Se
   0.2960620170000000    0.3333335230000000    0.9999998200000000 Se
   0.6293949870000000    0.3333335330000000    0.8333335400000000 Se
   0.9627284570000000    0.1666665630000000    0.4999999500000000 Se
   0.9627284570000000    0.5000000130000000    0.1666663600000000 Se
   0.1666665270000000    0.6293949730000000    0.8888890500000000 Se
   0.8333334670000000    0.4627285130000000    0.5555554600000000 Se
   0.2039380170000000    0.5372714830000000    0.9444445700000000 Se
   0.5372714870000000    0.2039380430000000    0.9444445700000000 Se
   0.4999999970000000    0.9627284330000000    0.2222223800000000 Se
   0.2960620170000000    0.6666664730000000    0.8333335400000000 Se
   0.2960620170000000    0.8333334430000000    0.6666664900000000 Se
   0.6666664870000000    0.7960619630000000    0.3888889200000000 Se
   0.8333334770000000    0.1293950730000000    0.7222225100000000 Se
   0.0000000370000000    0.9627284130000000    0.5555554600000000 Se
   0.3706050070000000    0.7039379630000000    0.7777780200000000 Se
   0.7039379770000000    0.3706050230000000    0.7777780200000000 Se
   0.4627284970000000    0.9999999230000000    0.1666663600000000 Se
   0.4627285070000000    0.1666665530000000    0.9999998200000000 Se
   0.8333334670000000    0.6293949930000000    0.3888889200000000 Se
   0.5372714870000000    0.8706049430000000    0.4444444400000000 Se
   0.8706049570000000    0.5372715030000000    0.4444444400000000 Se
   0.6666664870000000    0.1293950630000000    0.8888890500000000 Se
   0.4999999970000000    0.4627285030000000    0.8888890500000000 Se
   0.1666665270000000    0.9627284230000001    0.5555554600000000 Se
   0.7039379770000000    0.8706049530000000    0.1111108500000000 Se
   0.8706049670000000    0.7039379830000000    0.1111108500000000 Se
   0.3333335170000000    0.7960619530000000    0.7222225100000000 Se
   0.1293950370000000    0.4999999930000000    0.9999998200000000 Se
   0.3706050070000000    0.8706049430000000    0.6111109800000000 Se
   0.8706049670000000    0.3706050330000000    0.6111109800000000 Se
   0.9627284570000000    0.3333335430000000    0.4999999500000000 Se
   0.9627284570000000    0.5000000130000000    0.3333334100000000 Se
   0.3333335070000000    0.6293949730000000    0.8888890500000000 Se
   0.6371361870000000    0.6725059030000000    0.6658514500000000 Se
   0.8333334670000000    0.2960620430000000    0.7222225100000000 Se
   0.3706050070000000    0.5372714930000000    0.9444445700000000 Se
   0.5372714970000000    0.3706050230000000    0.9444445700000000 Se
   0.6666664770000000    0.2960620330000000    0.8888890500000000 Se
   0.4627284970000000    0.3333335230000000    0.9999998200000000 Se
   0.4999999970000000    0.9627284330000000    0.3888889200000000 Se
   0.7960619670000000    0.0000000830000000    0.8333335400000000 Se
   0.7960619770000000    0.5000000130000000    0.6666664900000000 Se
   0.7960619670000000    0.6666664830000000    0.4999999500000000 Se
   0.7039379770000000    0.8706049530000000    0.2777778900000000 Se
   0.8706049670000000    0.7039379830000000    0.2777778900000000 Se
   0.8333334670000000    0.7960619630000000    0.0555553300000000 Se
   0.6293271070000001    0.8312550030000000    0.4999566900000000 Se
   0.2960620170000000    0.4999999930000000    0.9999998200000000 Se
   0.6293949870000000    0.5000000030000000    0.8333335400000000 Se
   0.3333335070000000    0.9627284230000001    0.5555554600000000 Se
   0.4627284970000000    0.6666664730000000    0.8333335400000000 Se
   0.4627285070000000    0.8333334529999999    0.6666664900000000 Se
   0.7960619770000000    0.1666665630000000    0.8333335400000000 Se
   0.7960619770000000    0.8333334630000000    0.1666663600000000 Se
   0.0372715470000000    0.8706049330000000    0.7777780200000000 Se
   0.8706049670000000    0.0372715830000000    0.7777780200000000 Se
   0.6712731370000000    0.6330299630000000    0.7219064100000000 Se
   0.6666664770000000    0.9627284330000000    0.0555553300000000 Se
   0.7101429770000000    0.7065862030000000    0.6095738800000000 Se
   0.8333334670000000    0.7960619630000000    0.2222223800000000 Se
   0.6666664870000000    0.7960619630000000    0.5555554600000000 Se
   0.0372715370000000    0.7039379529999999    0.9444445700000000 Se
   0.7039379870000000    0.0372715830000000    0.9444445700000000 Se
   0.5372714970000000    0.7039379730000001    0.7777780200000000 Se
   0.7039379770000000    0.5372715030000000    0.7777780200000000 Se
   0.9627284570000000    0.1666665630000000    0.6666664900000000 Se
   0.9627284570000000    0.6666664930000000    0.1666663600000000 Se
   0.8333334670000000    0.6293949930000000    0.5555554600000000 Se
   0.2039380270000000    0.8706049330000000    0.7777780200000000 Se
   0.8706049670000000    0.2039380630000000    0.7777780200000000 Se
   0.4999999970000000    0.7960619530000000    0.7222225100000000 Se
   0.5372714870000000    0.8706049430000000    0.6111109800000000 Se
   0.8706049570000000    0.5372715030000000    0.6111109800000000 Se
   0.6666664770000000    0.9627284330000000    0.2222223800000000 Se
   0.0000000470000000    0.7960619430000000    0.8888890500000000 Se
   0.6293949870000000    0.9999999330000000    0.1666663600000000 Se
   0.6293949870000000    0.1666665530000000    0.9999998200000000 Se
   0.2039380270000000    0.7039379630000000    0.9444445700000000 Se
   0.7039379770000000    0.2039380530000000    0.9444445700000000 Se
   0.8333334670000000    0.4627285130000000    0.7222225100000000 Se
   0.4999999970000000    0.6293949830000000    0.8888890500000000 Se
   0.7960619670000000    0.3333335330000000    0.8333335400000000 Se
   0.7960619770000000    0.8333334630000000    0.3333334100000000 Se
   0.0000000370000000    0.9627284130000000    0.7222225100000000 Se
   0.6666664870000000    0.4627285130000000    0.8888890500000000 Se
   0.7039379770000000    0.8706049530000000    0.4444444400000000 Se
   0.8706049670000000    0.7039379830000000    0.4444444400000000 Se
   0.1666665270000000    0.7960619430000000    0.8888890500000000 Se
   0.1293950270000000    0.9999999130000000    0.6666664900000000 Se
   0.1293950270000000    0.6666664630000000    0.9999998200000000 Se
   0.4627285070000000    0.5000000030000000    0.9999998200000000 Se
   0.1666665270000000    0.9627284230000001    0.7222225100000000 Se
   0.8333334670000000    0.7960619630000000    0.3888889200000000 Se
   0.9627284570000000    0.3333335430000000    0.6666664900000000 Se
   0.9627284570000000    0.6666664930000000    0.3333334100000000 Se
   0.4999999970000000    0.9627284330000000    0.5555554600000000 Se
   0.3706050070000000    0.8706049430000000    0.7777780200000000 Se
   0.8706049670000000    0.3706050330000000    0.7777780200000000 Se
   0.8333334770000000    0.1293950730000000    0.8888890500000000 Se
   0.6293949870000000    0.3333335330000000    0.9999998200000000 Se
   0.6666664770000000    0.9627284330000000    0.3888889200000000 Se
   0.3706050070000000    0.7039379630000000    0.9444445700000000 Se
   0.7039379770000000    0.3706050230000000    0.9444445700000000 Se
   0.2960620070000000    0.9999999130000000    0.6666664900000000 Se
   0.2960620170000000    0.6666664730000000    0.9999998200000000 Se
   0.6300952869999999    0.8325722830000000    0.6657813299999999 Se
   0.3333335170000000    0.7960619530000000    0.8888890500000000 Se
   0.6293949870000000    0.6666664830000000    0.8333335400000000 Se
   0.3333335070000000    0.9627284230000001    0.7222225100000000 Se
   0.8333334670000000    0.2960620430000000    0.8888890500000000 Se
   0.7960619770000000    0.5000000130000000    0.8333335400000000 Se
   0.7960619770000000    0.8333334630000000    0.4999999500000000 Se
   0.6666664870000000    0.7960619630000000    0.7222225100000000 Se
   0.8333334670000000    0.6293949930000000    0.7222225100000000 Se
   0.9627284570000000    0.5000000130000000    0.6666664900000000 Se
   0.9627284570000000    0.6666664930000000    0.4999999500000000 Se
   0.8333334670000000    0.9627284430000000    0.0555553300000000 Se
   0.7039379770000000    0.8706049530000000    0.6111109800000000 Se
   0.8706049670000000    0.7039379830000000    0.6111109800000000 Se
   0.6666664770000000    0.6293949830000000    0.8888890500000000 Se
   0.8333334670000000    0.7960619630000000    0.5555554600000000 Se
   0.6293949870000000    0.5000000030000000    0.9999998200000000 Se
   0.9627284570000000    0.1666665630000000    0.8333335400000000 Se
   0.9627284570000000    0.8333334630000000    0.1666663600000000 Se
   0.0372715470000000    0.8706049330000000    0.9444445700000000 Se
   0.5372714870000000    0.8706049430000000    0.7777780200000000 Se
   0.8706049670000000    0.0372715830000000    0.9444445700000000 Se
   0.8706049570000000    0.5372715030000000    0.7777780200000000 Se
   0.4627284970000000    0.9999999230000000    0.6666664900000000 Se
   0.4627284970000000    0.6666664730000000    0.9999998200000000 Se
   0.7960619670000000    0.9999999330000000    0.1666663600000000 Se
   0.7960619770000000    0.1666665630000000    0.9999998200000000 Se
   0.8333334670000000    0.9627284430000000    0.2222223800000000 Se
   0.4999999970000000    0.7960619530000000    0.8888890500000000 Se
   0.5372714970000000    0.7039379730000001    0.9444445700000000 Se
   0.7039379770000000    0.5372715030000000    0.9444445700000000 Se
   0.6666664770000000    0.9627284330000000    0.5555554600000000 Se
   0.2039380270000000    0.8706049330000000    0.9444445700000000 Se
   0.8706049670000000    0.2039380630000000    0.9444445700000000 Se
   0.4999999970000000    0.9627284330000000    0.7222225100000000 Se
   0.8333334670000000    0.4627285130000000    0.8888890500000000 Se
   0.1293950270000000    0.8333334330000000    0.9999998200000000 Se
   0.0000000370000000    0.9627284130000000    0.8888890500000000 Se
   0.9627284570000000    0.3333335430000000    0.8333335400000000 Se
   0.9627284570000000    0.8333334630000000    0.3333334100000000 Se
   0.1666665270000000    0.9627284230000001    0.8888890500000000 Se
   0.7960619670000000    0.3333335330000000    0.9999998200000000 Se
   0.7960619670000000    0.6666664830000000    0.8333335400000000 Se
   0.7960619770000000    0.8333334630000000    0.6666664900000000 Se
   0.8333334670000000    0.9627284430000000    0.3888889200000000 Se
   0.2960620170000000    0.8333334430000000    0.9999998200000000 Se
   0.3706050070000000    0.8706049430000000    0.9444445700000000 Se
   0.8706049670000000    0.3706050330000000    0.9444445700000000 Se
   0.3333335070000000    0.9627284230000001    0.8888890500000000 Se
   0.6293949870000000    0.9999999330000000    0.6666664900000000 Se
   0.6293949870000000    0.6666664830000000    0.9999998200000000 Se
   0.8333334670000000    0.7960619630000000    0.7222225100000000 Se
   0.7039379770000000    0.8706049530000000    0.7777780200000000 Se
   0.8706049670000000    0.7039379830000000    0.7777780200000000 Se
   0.6666664870000000    0.7960619630000000    0.8888890500000000 Se
   0.9627284570000000    0.5000000130000000    0.8333335400000000 Se
   0.9627284570000000    0.8333334630000000    0.4999999500000000 Se
   0.8333334670000000    0.6293949930000000    0.8888890500000000 Se
   0.7960619770000000    0.5000000130000000    0.9999998200000000 Se
   0.6666664770000000    0.9627284330000000    0.7222225100000000 Se
   0.4627285070000000    0.8333334529999999    0.9999998200000000 Se
   0.8333334670000000    0.9627284430000000    0.5555554600000000 Se
   0.5372714870000000    0.8706049430000000    0.9444445700000000 Se
   0.8706049570000000    0.5372715030000000    0.9444445700000000 Se
   0.9627285370000001    0.9999999030000000    0.1666663600000000 Se
   0.4999999970000000    0.9627284330000000    0.8888890500000000 Se
   0.9627285370000001    0.9999999030000000    0.3333334100000000 Se
   0.9627285470000000    0.3333335130000000    0.9999998200000000 Se
   0.9627284570000000    0.6666664930000000    0.8333335400000000 Se
   0.9627284570000000    0.8333334630000000    0.6666664900000000 Se
   0.7960619670000000    0.9999999330000000    0.6666664900000000 Se
   0.7960619670000000    0.6666664830000000    0.9999998200000000 Se
   0.6293949870000000    0.8333334529999999    0.9999998200000000 Se
   0.8333334670000000    0.7960619630000000    0.8888890500000000 Se
   0.8333334670000000    0.9627284430000000    0.7222225100000000 Se
   0.7039379770000000    0.8706049530000000    0.9444445700000000 Se
   0.8706049670000000    0.7039379830000000    0.9444445700000000 Se
   0.6666664770000000    0.9627284330000000    0.8888890500000000 Se
   0.9627285370000001    0.9999999030000000    0.4999999500000000 Se
   0.9627284570000000    0.5000000130000000    0.9999998200000000 Se
   0.7960619770000000    0.8333334630000000    0.9999998200000000 Se
   0.9627285370000001    0.9999999030000000    0.6666664900000000 Se
   0.9627284570000000    0.6666664930000000    0.9999998200000000 Se
   0.8333334670000000    0.9627284430000000    0.8888890500000000 Se
   0.9627285370000001    0.9999999030000000    0.8333335400000000 Se
   0.9627284570000000    0.8333334630000000    0.9999998200000000 Se
