Se233
1.0
  19.5490800000000000    3.7622220000000000   -4.9635699999999998
   8.6884800000000002   15.0488879999999998    9.9271399999999996
   2.1721200000000001   -3.7622220000000000   19.8542799999999993
Se
233
direct
   0.6663418370000000    0.1111654460000000    0.1110024970000000 Se
   0.0544195400000000    0.1819756720000000    0.0059500830000000 Se
   0.2023155900000000    0.0530128460000000    0.1907387800000000 Se
   0.1278808270000000    0.0342418160000000    0.2648488770000000 Se
   0.0031373730000000    0.2460783800000000    0.2110787530000000 Se
   0.2851885050000000    0.1435141770000000    0.0828730700000000 Se
   0.1535212020000000    0.2521910670000000    0.1622843450000000 Se
   0.2279559650000000    0.2709620970000000    0.0881742500000000 Se
   0.2339063370000000    0.2076168870000000    0.2880017420000000 Se
   0.1510334230000000    0.1171155550000000    0.3958674500000000 Se
   0.4355728720000000    0.1496269400000000    0.0340795100000000 Se
   0.0287783630000000    0.4640268630000000    0.1085147600000000 Se
   0.1766737980000000    0.3350648060000000    0.2933029200000000 Se
   0.0765986600000000    0.0983445250000000    0.4699775480000000 Se
   0.1022390340000000    0.3162937760000000    0.3674130160000000 Se
   0.3851048580000000    0.2195192720000000    0.2360341840000000 Se
   0.1764326700000000    0.4716355540000000    0.0586796900000000 Se
   0.4330845550000000    0.0145513520000000    0.2676617700000000 Se
   0.2571210200000000    0.4280581700000000    0.1839601760000000 Se
   0.4587256220000000    0.2325004870000000    0.1650974680000000 Se
   0.5159581620000000    0.1050525680000000    0.1597962900000000 Se
   0.1826243230000000    0.2717194040000000    0.4931297970000000 Se
   0.1247224100000000    0.5363793450000000    0.2627030980000000 Se
   0.4119816800000000    0.4293625340000000    0.1385942320000000 Se
   0.3818023870000000    0.0786540600000000    0.4727904400000000 Se
   0.4624910650000000    0.1787965930000000    0.3609657380000000 Se
   0.1569839480000000    0.0537701530000000    0.5956943300000000 Se
   0.2008658260000000    0.5544661040000000    0.1906550460000000 Se
   0.3326403630000000    0.2815541160000000    0.4425640260000000 Se
   0.4048638500000000    0.3063926400000000    0.3671533400000000 Se
   0.3073676240000000    0.0598830300000000    0.5469005360000000 Se
   0.5415991520000000    0.3230010500000000    0.0572322970000000 Se
   0.0997514100000000    0.1812180720000000    0.6009955060000000 Se
   0.1253917840000000    0.3991673240000000    0.4984309740000000 Se
   0.2050934920000000    0.4909911700000000    0.3886279130000000 Se
   0.4843666120000000    0.4504489700000000    0.0625334740000000 Se
   0.4913461930000000    0.3834008170000000    0.2655287630000000 Se
   0.0523248400000000    0.6829882450000000    0.0062127960000000 Se
   0.0509570200000000    0.3803962940000000    0.5725410700000000 Se
   0.0253166450000000    0.1624470420000000    0.6751056030000000 Se
   0.2911311970000000    0.6376288260000000    0.0880050740000000 Se
   0.3695539700000000    0.4961209780000000    0.3569203370000000 Se
   0.6181906300000000    0.1716895900000000    0.3189510280000000 Se
   0.4325358750000000    0.5109094350000000    0.2737599360000000 Se
   0.4132496270000000    0.2355276830000000    0.5683173379999999 Se
   0.1489186800000000    0.6170404680000000    0.3956259970000000 Se
   0.7407766000000000    0.1299364760000000    0.0368924000000000 Se
   0.6894945870000000    0.1940389930000000    0.2420204560000000 Se
   0.0736096150000000    0.5990667330000000    0.4692031920000000 Se
   0.6919828270000000    0.3291139280000000    0.0084385040000000 Se
   0.3305203740000000    0.1427565780000000    0.6779184950000000 Se
   0.3604940120000000    0.3643833130000000    0.5720799540000000 Se
   0.0021988250000000    0.7465164030000000    0.2112579300000000 Se
   0.3877529130000000    0.0153086600000000    0.6726173170000000 Se
   0.6350176850000000    0.3932642370000000    0.2129626460000000 Se
   0.1606435860000000    0.7455680960000000    0.1685123300000000 Se
   0.4356184100000000    0.6514385260000000    0.0328784370000000 Se
   0.1313423100000000    0.3358219200000000    0.6982578520000000 Se
   0.2843879250000000    0.3482087600000000    0.6446463460000000 Se
   0.7467271260000000    0.0665910740000000    0.2367192780000000 Se
   0.2444263060000000    0.6944205170000000    0.2972212540000000 Se
   0.7980091400000000    0.0024885570000000    0.0315912230000000 Se
   0.2560856100000000    0.1239855480000000    0.7520285900000000 Se
   0.5632298750000000    0.2414517700000000    0.5217152660000000 Se
   0.2325205920000000    0.7655735950000000    0.0927381440000000 Se
   0.5149431050000000    0.6075017630000000    0.1586396600000000 Se
   0.1057019350000000    0.1178726700000000    0.8008223840000001 Se
   0.6385578240000001    0.2569982420000000    0.4482992080000000 Se
   0.5381372800000001    0.0214214220000000    0.6238237550000000 Se
   0.6125720440000000    0.0401924520000000    0.5497136580000000 Se
   0.3834867840000000    0.5624345800000000    0.4686008080000000 Se
   0.1549037620000000    0.5552249730000000    0.5941693700000000 Se
   0.7723681160000000    0.2845395560000000    0.1341552850000000 Se
   0.6973836800000000    0.1282138300000000    0.4446694660000000 Se
   0.7151355770000000    0.4119874750000000    0.1394564630000000 Se
   0.3130784000000000    0.5570281640000000    0.5452716800000000 Se
   0.0484693950000000    0.2453205900000000    0.8061235600000000 Se
   0.0741097700000000    0.4632698400000000    0.7035590300000000 Se
   0.3850788370000000    0.7154226460000001    0.2383711360000000 Se
   0.5833071300000000    0.4558788780000000    0.4203924450000000 Se
   0.7161478550000000    0.3504914560000000    0.3380457540000000 Se
   0.6557999860000000    0.4765788200000000    0.3446595920000000 Se
   0.4589178400000000    0.7352342200000000    0.1635033200000000 Se
   0.4640085920000000    0.6727331800000000    0.3635395530000000 Se
   0.1820402700000000    0.8261370040000000    0.2979661550000000 Se
   0.1067736930000000    0.8103621440000000    0.3707725800000000 Se
   0.3618970300000000    0.3018781300000000    0.7719386800000000 Se
   0.0228284050000000    0.0273721080000000    0.9086875550000000 Se
   0.6663424960000000    0.6111648119999999    0.1110027960000000 Se
   0.0977155800000000    0.6818608830000000    0.6005260260000000 Se
   0.8971108000000000    0.0727039520000000    0.1879254860000000 Se
   0.1872409600000000    0.7643046620000000    0.4972836900000000 Se
   0.5854914530000001    0.3225795500000000    0.6501676840000000 Se
   0.3917302900000000    0.5127942230000000    0.6737326480000000 Se
   0.6453207720000000    0.1933917960000000    0.6480062030000000 Se
   0.3068337000000000    0.4295121000000000    0.7777576800000000 Se
   0.5137810000000000    0.3025218570000000    0.7267438540000000 Se
   0.8464012540000000    0.1362286600000000    0.3927883160000000 Se
   0.3364709000000000    0.0794111760000000    0.8777453720000000 Se
   0.7980098000000000    0.5024879220000000    0.0315915220000000 Se
   0.0253166900000000    0.6624471770000000    0.6751053630000000 Se
   0.5612900300000000    0.1042949700000000    0.7548417140000000 Se
   0.2792383600000000    0.2068590960000000    0.8830465500000000 Se
   0.6671852060000000    0.4137927500000000    0.5437906480000000 Se
   0.3323697200000000    0.7789350819999999    0.4427141940000000 Se
   0.4868552670000000    0.0855239400000000    0.8289518100000000 Se
   0.6150603280000000    0.6752675200000000    0.3161314670000000 Se
   0.7467276300000000    0.5665906320000000    0.2367201930000000 Se
   0.5298215630000001    0.5253560660000000    0.6173112750000000 Se
   0.4058685900000000    0.8003186580000000    0.3683478960000000 Se
   0.0287791650000000    0.9640264200000001    0.1085146150000000 Se
   0.9227524840000000    0.2906523200000000    0.0853617230000000 Se
   0.7407772600000000    0.6299358420000000    0.0368927000000000 Se
   0.2304446630000000    0.4060372000000000    0.8545923450000000 Se
   0.2595473700000000    0.9255655040000000    0.1854375100000000 Se
   0.6090213480000000    0.5414456400000000    0.5480022500000000 Se
   0.9715466260000000    0.0914743400000000    0.1138157930000000 Se
   0.8714704700000000    0.3547548360000000    0.2904897780000000 Se
   0.9202635500000000    0.1555775000000000    0.3189434440000000 Se
   0.5415990420000000    0.8230013770000000    0.0572326730000000 Se
   0.1791628400000000    0.9701392980000000    0.0597208220000000 Se
   0.3325040820000000    0.6401167600000000    0.6793714630000000 Se
   0.0800601420000000    0.3999246300000000    0.9033865220000000 Se
   0.2048035960000000    0.1880880660000000    0.9571566460000001 Se
   0.6894950920000000    0.6940385500000000    0.2420213700000000 Se
   0.2560856540000000    0.6239856830000000    0.7520283520000000 Se
   0.7947316900000000    0.2008229140000000    0.5974429800000000 Se
   0.4117226400000000    0.7360797900000000    0.5679460350000000 Se
   0.1057018250000000    0.6178729980000000    0.8008227600000000 Se
   0.4099317380000000    0.9316782670000000    0.1366439470000000 Se
   0.9774969980000000    0.0281291300000000    0.3136432850000000 Se
   0.1294010470000000    0.8927302440000000    0.5018561750000000 Se
   0.8682169640000000    0.2212564640000000    0.5225040050000000 Se
   0.6954456180000000    0.6306931500000000    0.4418482480000000 Se
   0.9459048329999999    0.3735263000000000    0.2163799300000000 Se
   0.9971870000000000    0.3094235900000000    0.0112512600000000 Se
   0.8201883030000000    0.4188575450000000    0.4956184500000000 Se
   0.4903170280000000    0.8871038940000000    0.2623607280000000 Se
   0.8433410099999999    0.0017309580000000    0.6266366470000000 Se
   0.0228276020000000    0.5273725500000001    0.9086877000000000 Se
   0.0509576800000000    0.8803956600000000    0.5725413700000000 Se
   0.9271430070000000    0.0935797520000000    0.5176204700000000 Se
   0.5637783140000000    0.7393700400000000    0.5212595220000000 Se
   0.4843665020000000    0.9504492970000000    0.0625338500000000 Se
   0.5953826550000000    0.2559015560000000    0.8531561830000000 Se
   0.6098044800000000    0.4807998600000000    0.7439613450000000 Se
   0.6919828700000000    0.8291140630000000    0.0084382650000000 Se
   0.8971114600000000    0.5727033180000000    0.1879257850000000 Se
   0.8946230660000000    0.4376285750000000    0.4215083520000000 Se
   0.2082659620000000    0.9896676360000000    0.3905662730000000 Se
   0.5385231840000000    0.3824331700000000    0.8598382440000000 Se
   0.9518553600000000    0.3101808980000000    0.4162068080000000 Se
   0.6382130780000000    0.7581410700000000    0.4471494260000000 Se
   0.3108301870000000    0.3614625440000000    0.9803093080000000 Se
   0.3554253320000000    0.8635519040000000    0.5734417130000000 Se
   0.1313428150000000    0.8358214800000000    0.6982587660000000 Se
   0.0484692850000000    0.7453209170000000    0.8061239370000000 Se
   0.2817266440000000    0.8419341650000000    0.6494643580000000 Se
   0.5100076360000000    0.1683979700000000    0.9599694130000000 Se
   0.4612136280000000    0.3675757070000000    0.9315153330000000 Se
   0.3364707900000000    0.5794115030000000    0.8777457480000000 Se
   0.7723680060000000    0.7845398830000000    0.1341556600000000 Se
   0.5672405560000000    0.0409495670000000    0.9546685900000000 Se
   0.3586497900000000    0.9957803220000000    0.3417718650000000 Se
   0.5550343570000000    0.6054116780000000    0.7531927850000000 Se
   0.6407007030000000    0.8932167720000000    0.2135669350000000 Se
   0.7429394330000000    0.2651750350000000    0.8019522380000000 Se
   0.4868546180000000    0.5855241900000000    0.8289513400000000 Se
   0.2535976480000000    0.4889104630000000    0.9856104860000000 Se
   0.8458292930000000    0.6368060270000000    0.3930544550000000 Se
   0.8169283100000000    0.2848454780000000    0.7276600360000000 Se
   0.9715458230000000    0.5914747820000000    0.1138159380000000 Se
   0.8749886830000000    0.1570246480000000    0.7229023700000000 Se
   0.7689062900000000    0.4829600630000000    0.7007465040000000 Se
   0.4390349270000000    0.9512061420000000    0.4674892620000000 Se
   0.6441636039999999    0.6947956660000000    0.6469763030000000 Se
   0.7920589950000000    0.0658334750000000    0.8317647020000000 Se
   0.9774963500000000    0.5281293800000000    0.3136428150000000 Se
   0.9005735920000000    0.3742831730000000    0.6213352300000000 Se
   0.7176242300000000    0.0470624450000000    0.9058747980000000 Se
   0.7210859920000000    0.8486424000000000    0.3392837160000000 Se
   0.8433410520000000    0.5017310930000000    0.6266364070000000 Se
   0.2792382500000000    0.7068594230000000    0.8830469260000000 Se
   0.7151354670000000    0.9119878020000000    0.1394568400000000 Se
   0.3621117800000000    0.7973599850000000    0.7751817540000000 Se
   0.9202640570000000    0.6555770570000000    0.3189443600000000 Se
   0.0741104200000000    0.9632695900000000    0.7035595000000000 Se
   0.2048034860000000    0.6880883930000000    0.9571570220000000 Se
   0.5124963000000000    0.8034725560000000    0.7263875770000000 Se
   0.5894186900000000    0.9573192900000000    0.4186949900000000 Se
   0.5869310639999999    0.8222435860000000    0.6522774800000000 Se
   0.9262145820000000    0.5922316550000000    0.5187712360000000 Se
   0.7945472800000000    0.7009085440000000    0.5981825100000000 Se
   0.9227518350000000    0.7906525700000000    0.0853612530000000 Se
   0.6638542120000001    0.9760897420000000    0.3445849880000000 Se
   0.5672397540000000    0.5409500100000000    0.9546687360000000 Se
   0.8689820430000000    0.7196795740000000    0.5240724140000000 Se
   0.3048792400000000    0.9248079050000000    0.7804829320000000 Se
   0.8714696680000000    0.8547552780000000    0.2904899230000000 Se
   0.7647107100000000    0.3496641180000000    0.9318663060000000 Se
   0.6698039800000000    0.9127449180000000    0.5444117700000000 Se
   0.8237391130000000    0.2219307940000000    0.9269569660000000 Se
   0.8492915780000000    0.4383856900000000    0.8264632840000000 Se
   0.2304444760000000    0.9060368750000000    0.8545930300000000 Se
   0.5100076030000000    0.6683974499999999    0.9599694800000000 Se
   0.0800608000000000    0.8999239970000000    0.9033868200000000 Se
   0.7176242750000000    0.5470625800000000    0.9058745600000000 Se
   0.7920590400000000    0.5658336100000000    0.8317644620000000 Se
   0.9966121420000000    0.8103414700000000    0.0118073300000000 Se
   0.5928814360000000    0.7588983760000000    0.8521049730000000 Se
   0.9459044300000000    0.8735263080000000    0.2163798270000000 Se
   0.8749325680000000    0.6563341720000000    0.7238992900000000 Se
   0.9498801900000000    0.8101215650000000    0.4164237250000000 Se
   0.8201876540000000    0.9188577959999999    0.4956179780000000 Se
   0.9740346320000000    0.2265495600000000    0.8802336580000000 Se
   0.7432652650000000    0.7650110620000000    0.8033105650000000 Se
   0.3108293850000000    0.8614629870000000    0.9803094540000000 Se
   0.9996750060000000    0.4444988100000000    0.7776691260000000 Se
   0.5356488970000000    0.8863462950000000    0.8574061500000000 Se
   0.8177000300000000    0.7837820920000000    0.7292004700000000 Se
   0.4612141330000000    0.8675752650000000    0.9315162480000000 Se
   0.8946224180000000    0.9376288260000000    0.4215078820000000 Se
   0.9483928149999999    0.0086014350000000    0.9827974300000000 Se
   0.6185225700000000    0.9768470500000001    0.7495405360000000 Se
   0.9005729430000000    0.8742834229999999    0.6213347600000000 Se
   0.2535976040000000    0.9889103280000000    0.9856107260000000 Se
   0.7689062450000000    0.9829599280000000    0.7007467429999999 Se
   0.8236504000000000    0.7204368820000000    0.9290279620000000 Se
   0.9483934740000000    0.5086008000000000    0.9827977300000000 Se
   0.7664178600000000    0.8478848000000000    0.9343291400000000 Se
   0.9740345200000000    0.7265498870000000    0.8802340340000000 Se
   0.8492907760000000    0.9383861330000000    0.8264634300000000 Se
   0.9996755120000000    0.9444983700000000    0.7776700400000000 Se
