Se647
1.0
  26.0654399999999988    0.0000000000000000    0.0000000000000000
 -13.0327199999999994   22.5733320000000006    0.0000000000000000
   0.0000000000000000    0.0000000000000000   29.7814200000000007
Se
647
direct
   0.0372715370000000    0.0372715530000000    0.1111108500000000 Se
   0.1293950270000000    0.0000000630000000    0.0000000800000000 Se
   0.1293950370000000    0.1666665430000000    0.1666663600000000 Se
   0.0372715370000000    0.0372715530000000    0.2777778900000000 Se
   0.2960620170000000    0.0000000730000000    0.0000000800000000 Se
   0.2039380170000000    0.2039380330000000    0.1111108500000000 Se
   0.2960620170000000    0.1666665430000000    0.1666663600000000 Se
   0.2039380170000000    0.2039380330000000    0.2777778900000000 Se
   0.0372715370000000    0.0372715530000000    0.4444444400000000 Se
   0.4627284970000000    0.0000000730000000    0.0000000800000000 Se
   0.1293950270000000    0.3333335130000000    0.3333334100000000 Se
   0.4627285070000000    0.1666665530000000    0.1666663600000000 Se
   0.2039380170000000    0.2039380330000000    0.4444444400000000 Se
   0.3706050070000000    0.3706050130000000    0.1111108500000000 Se
   0.2978510470000000    0.3344771730000000    0.3341202700000000 Se
   0.3723413070000000    0.3729772430000000    0.2784144900000000 Se
   0.0372715370000000    0.0372715530000000    0.6111109800000000 Se
   0.6293949870000000    0.1666665530000000    0.1666663600000000 Se
   0.2039380170000000    0.2039380330000000    0.6111109800000000 Se
   0.1293950370000000    0.4999999930000000    0.4999999500000000 Se
   0.2974125870000000    0.5000071430000000    0.5000010100000000 Se
   0.5372714870000000    0.5372714930000000    0.1111108500000000 Se
   0.0372715370000000    0.0372715530000000    0.7777780200000000 Se
   0.6290367070000000    0.3326647030000000    0.3326851100000000 Se
   0.3727258570000000    0.3718775130000000    0.6108913200000000 Se
   0.2039380170000000    0.2039380330000000    0.7777780200000000 Se
   0.7960619770000000    0.1666665630000000    0.1666663600000000 Se
   0.7960619670000000    0.3333335330000000    0.3333334100000000 Se
   0.3706050070000000    0.3706050130000000    0.7777780200000000 Se
   0.6270787870000000    0.5000303330000000    0.4999894500000000 Se
   0.0372715370000000    0.0372715530000000    0.9444445700000000 Se
   0.1293950270000000    0.6666664630000000    0.6666664900000000 Se
   0.2039380170000000    0.2039380330000000    0.9444445700000000 Se
   0.2964116870000000    0.6673292930000000    0.6673238100000000 Se
   0.9627284570000000    0.1666665630000000    0.1666663600000000 Se
   0.7039379770000000    0.7039379730000001    0.1111108500000000 Se
   0.7038074470000000    0.7030983730000000    0.2781307900000000 Se
   0.4634388770000000    0.6655150230000000    0.6658889500000000 Se
   0.7960619770000000    0.5000000130000000    0.4999999500000000 Se
   0.9627284570000000    0.3333335430000000    0.3333334100000000 Se
   0.3706050070000000    0.3706050130000000    0.9444445700000000 Se
   0.5372714870000000    0.5372714930000000    0.7777780200000000 Se
   0.7043431070000000    0.7041121030000000    0.4445189600000000 Se
   0.7040153270000000    0.7039747030000000    0.6114958400000000 Se
   0.1293950270000000    0.8333334330000000    0.8333335400000000 Se
   0.9627284570000000    0.5000000130000000    0.4999999500000000 Se
   0.5372714870000000    0.5372714930000000    0.9444445700000000 Se
   0.2960620170000000    0.8333334430000000    0.8333335400000000 Se
   0.7960619670000000    0.6666664830000000    0.6666664900000000 Se
   0.8706049570000000    0.8706049530000000    0.1111108500000000 Se
   0.8706049570000000    0.8706049530000000    0.2777778900000000 Se
   0.7039379770000000    0.7039379730000001    0.7777780200000000 Se
   0.4627285070000000    0.8333334529999999    0.8333335400000000 Se
   0.8706049570000000    0.8706049530000000    0.4444444400000000 Se
   0.6293949870000000    0.8333334529999999    0.8333335400000000 Se
   0.9627284570000000    0.6666664930000000    0.6666664900000000 Se
   0.7039379770000000    0.7039379730000001    0.9444445700000000 Se
   0.8706049570000000    0.8706049530000000    0.6111109800000000 Se
   0.7960619770000000    0.8333334630000000    0.8333335400000000 Se
   0.8706049570000000    0.8706049530000000    0.7777780200000000 Se
   0.9627284570000000    0.8333334630000000    0.8333335400000000 Se
   0.6293949870000000    0.9999999330000000    0.9999998200000000 Se
   0.8706049570000000    0.8706049530000000    0.9444445700000000 Se
   0.7960619670000000    0.9999999330000000    0.9999998200000000 Se
   0.9627285370000001    0.9999999030000000    0.9999998200000000 Se
   0.0000000470000000    0.1293950430000000    0.0555553300000000 Se
   0.1666665270000000    0.1293950430000000    0.0555553300000000 Se
   0.0372715370000000    0.2039380330000000    0.1111108500000000 Se
   0.2039380270000000    0.0372715630000000    0.1111108500000000 Se
   0.0000000470000000    0.1293950430000000    0.2222223800000000 Se
   0.0000000370000000    0.2960620130000000    0.0555553300000000 Se
   0.1666665270000000    0.1293950430000000    0.2222223800000000 Se
   0.1666665270000000    0.2960620230000000    0.0555553300000000 Se
   0.0372715370000000    0.2039380330000000    0.2777778900000000 Se
   0.2039380270000000    0.0372715630000000    0.2777778900000000 Se
   0.1293950270000000    0.0000000630000000    0.3333334100000000 Se
   0.3333335170000000    0.1293950530000000    0.0555553300000000 Se
   0.0000000370000000    0.2960620130000000    0.2222223800000000 Se
   0.0372715370000000    0.3706050030000000    0.1111108500000000 Se
   0.3706050070000000    0.0372715630000000    0.1111108500000000 Se
   0.1293950370000000    0.1666665430000000    0.3333334100000000 Se
   0.1293950270000000    0.3333335130000000    0.1666663600000000 Se
   0.1666665270000000    0.2960620230000000    0.2222223800000000 Se
   0.0000000470000000    0.1293950430000000    0.3888889200000000 Se
   0.3333335170000000    0.1293950530000000    0.2222223800000000 Se
   0.2039380270000000    0.3706050130000000    0.1111108500000000 Se
   0.3706050070000000    0.2039380430000000    0.1111108500000000 Se
   0.1666665270000000    0.1293950430000000    0.3888889200000000 Se
   0.2960620170000000    0.0000000730000000    0.3333334100000000 Se
   0.3333335070000000    0.2960620230000000    0.0555553300000000 Se
   0.0372715370000000    0.3706050030000000    0.2777778900000000 Se
   0.3706050070000000    0.0372715630000000    0.2777778900000000 Se
   0.0000000470000000    0.4627284930000000    0.0555553300000000 Se
   0.2960620170000000    0.1666665430000000    0.3333334100000000 Se
   0.2960620170000000    0.3333335230000000    0.1666663600000000 Se
   0.0000000370000000    0.2960620130000000    0.3888889200000000 Se
   0.0372715370000000    0.2039380330000000    0.4444444400000000 Se
   0.2039380270000000    0.0372715630000000    0.4444444400000000 Se
   0.1666665270000000    0.4627284930000000    0.0555553300000000 Se
   0.3333335070000000    0.2960620230000000    0.2222223800000000 Se
   0.2039380270000000    0.3706050130000000    0.2777778900000000 Se
   0.3706050070000000    0.2039380430000000    0.2777778900000000 Se
   0.0000000470000000    0.4627284930000000    0.2222223800000000 Se
   0.1666665270000000    0.2960620230000000    0.3888889200000000 Se
   0.1293950270000000    0.0000000630000000    0.4999999500000000 Se
   0.4999999970000000    0.1293950530000000    0.0555553300000000 Se
   0.3333335170000000    0.1293950530000000    0.3888889200000000 Se
   0.1666665270000000    0.4627284930000000    0.2222223800000000 Se
   0.1293950370000000    0.1666665430000000    0.4999999500000000 Se
   0.1293950370000000    0.4999999930000000    0.1666663600000000 Se
   0.0372715370000000    0.5372714830000000    0.1111108500000000 Se
   0.5372714970000000    0.0372715730000000    0.1111108500000000 Se
   0.4999999970000000    0.1293950530000000    0.2222223800000000 Se
   0.4627284970000000    0.0000000730000000    0.3333334100000000 Se
   0.0000000470000000    0.1293950430000000    0.5555554600000000 Se
   0.3333335170000000    0.4627285030000000    0.0555553300000000 Se
   0.0372715370000000    0.3706050030000000    0.4444444400000000 Se
   0.3706050070000000    0.0372715630000000    0.4444444400000000 Se
   0.2960620170000000    0.0000000730000000    0.4999999500000000 Se
   0.4999999970000000    0.2960620330000000    0.0555553300000000 Se
   0.2039380170000000    0.5372714830000000    0.1111108500000000 Se
   0.5372714870000000    0.2039380430000000    0.1111108500000000 Se
   0.4627285070000000    0.1666665530000000    0.3333334100000000 Se
   0.4627284970000000    0.3333335230000000    0.1666663600000000 Se
   0.1666665270000000    0.1293950430000000    0.5555554600000000 Se
   0.3370477870000000    0.3004189530000000    0.3905301000000000 Se
   0.0000000470000000    0.4627284930000000    0.3888889200000000 Se
   0.2960620170000000    0.1666665430000000    0.4999999500000000 Se
   0.2960620170000000    0.4999999930000000    0.1666663600000000 Se
   0.0372715370000000    0.5372714830000000    0.2777778900000000 Se
   0.5372714970000000    0.0372715730000000    0.2777778900000000 Se
   0.3333335170000000    0.4627285030000000    0.2222223800000000 Se
   0.2039380270000000    0.3706050130000000    0.4444444400000000 Se
   0.3706050070000000    0.2039380430000000    0.4444444400000000 Se
   0.1293950270000000    0.3333335130000000    0.4999999500000000 Se
   0.1293950370000000    0.4999999930000000    0.3333334100000000 Se
   0.4999999970000000    0.2960620330000000    0.2222223800000000 Se
   0.1666665270000000    0.4627284930000000    0.3888889200000000 Se
   0.0000000370000000    0.2960620130000000    0.5555554600000000 Se
   0.0000000370000000    0.6293949630000000    0.0555553300000000 Se
   0.2039380170000000    0.5372714830000000    0.2777778900000000 Se
   0.5372714870000000    0.2039380430000000    0.2777778900000000 Se
   0.0372715370000000    0.2039380330000000    0.6111109800000000 Se
   0.2039380270000000    0.0372715630000000    0.6111109800000000 Se
   0.4999999970000000    0.1293950530000000    0.3888889200000000 Se
   0.1666665270000000    0.2960620230000000    0.5555554600000000 Se
   0.1666665270000000    0.6293949730000000    0.0555553300000000 Se
   0.3333335170000000    0.1293950530000000    0.5555554600000000 Se
   0.4634925770000000    0.3345941730000000    0.3333414100000000 Se
   0.3706050070000000    0.5372714930000000    0.1111108500000000 Se
   0.5372714970000000    0.3706050230000000    0.1111108500000000 Se
   0.0000000370000000    0.6293949630000000    0.2222223800000000 Se
   0.2955685670000000    0.3332238730000000    0.5007714500000000 Se
   0.2963197970000000    0.5001251730000000    0.3338665700000000 Se
   0.4627284970000000    0.0000000730000000    0.4999999500000000 Se
   0.6666664870000000    0.1293950630000000    0.0555553300000000 Se
   0.4999999970000000    0.4627285030000000    0.0555553300000000 Se
   0.1666665270000000    0.6293949730000000    0.2222223800000000 Se
   0.3713915770000000    0.3741827130000000    0.4464471000000000 Se
   0.3342715570000000    0.4629629730000000    0.3891948400000000 Se
   0.0372715370000000    0.5372714830000000    0.4444444400000000 Se
   0.5372714970000000    0.0372715730000000    0.4444444400000000 Se
   0.4999804970000000    0.2959903030000000    0.3884827600000000 Se
   0.1293950370000000    0.1666665430000000    0.6666664900000000 Se
   0.1293950270000000    0.6666664630000000    0.1666663600000000 Se
   0.4627285070000000    0.1666665530000000    0.4999999500000000 Se
   0.4627285070000000    0.5000000030000000    0.1666663600000000 Se
   0.3699589070000000    0.5374546430000000    0.2776854700000000 Se
   0.5376810670000000    0.3712616930000000    0.2774818700000000 Se
   0.6293949870000000    0.0000000830000000    0.3333334100000000 Se
   0.3337477070000000    0.2964411230000000    0.5558669800000000 Se
   0.0372715370000000    0.7039379529999999    0.1111108500000000 Se
   0.7039379870000000    0.0372715830000000    0.1111108500000000 Se
   0.3333335070000000    0.6293949730000000    0.0555553300000000 Se
   0.6666664870000000    0.1293950630000000    0.2222223800000000 Se
   0.0372715370000000    0.3706050030000000    0.6111109800000000 Se
   0.3706050070000000    0.0372715630000000    0.6111109800000000 Se
   0.4999999970000000    0.4627285030000000    0.2222223800000000 Se
   0.0000000470000000    0.4627284930000000    0.5555554600000000 Se
   0.2039380170000000    0.5372714830000000    0.4444444400000000 Se
   0.5372714870000000    0.2039380430000000    0.4444444400000000 Se
   0.6293949870000000    0.1666665530000000    0.3333334100000000 Se
   0.6293949870000000    0.3333335330000000    0.1666663600000000 Se
   0.6666664770000000    0.2960620330000000    0.0555553300000000 Se
   0.0000000470000000    0.1293950430000000    0.7222225100000000 Se
   0.0000000370000000    0.6293949630000000    0.3888889200000000 Se
   0.2039380270000000    0.7039379630000000    0.1111108500000000 Se
   0.7039379770000000    0.2039380530000000    0.1111108500000000 Se
   0.1666665270000000    0.4627284930000000    0.5555554600000000 Se
   0.2039380270000000    0.3706050130000000    0.6111109800000000 Se
   0.3706050070000000    0.2039380430000000    0.6111109800000000 Se
   0.3333335070000000    0.6293949730000000    0.2222223800000000 Se
   0.2960620170000000    0.1666665430000000    0.6666664900000000 Se
   0.2960620170000000    0.6666664730000000    0.1666663600000000 Se
   0.1666665270000000    0.1293950430000000    0.7222225100000000 Se
   0.1293950270000000    0.3333335130000000    0.6666664900000000 Se
   0.1293950270000000    0.6666664630000000    0.3333334100000000 Se
   0.0372715370000000    0.7039379529999999    0.2777778900000000 Se
   0.7039379870000000    0.0372715830000000    0.2777778900000000 Se
   0.1666665270000000    0.6293949730000000    0.3888889200000000 Se
   0.4999999970000000    0.1293950530000000    0.5555554600000000 Se
   0.4632414770000000    0.3334334230000000    0.4999820500000000 Se
   0.4610431770000000    0.5032097730000000    0.3326535100000000 Se
   0.6666664770000000    0.2960620330000000    0.2222223800000000 Se
   0.0000000370000000    0.2960620130000000    0.7222225100000000 Se
   0.6666664870000000    0.1293950630000000    0.3888889200000000 Se
   0.2039380270000000    0.7039379630000000    0.2777778900000000 Se
   0.7039379770000000    0.2039380530000000    0.2777778900000000 Se
   0.5372476170000000    0.3704395730000000    0.4441148500000000 Se
   0.3728221370000000    0.5366215430000000    0.4452970400000000 Se
   0.5016928470000001    0.4701464830000000    0.3903977600000000 Se
   0.3362279870000000    0.4634240730000000    0.5547110600000000 Se
   0.0000000470000000    0.7960619430000000    0.0555553300000000 Se
   0.1666665270000000    0.2960620230000000    0.7222225100000000 Se
   0.2972708670000000    0.6670689730000000    0.3344747300000000 Se
   0.3706050070000000    0.7039379630000000    0.1111108500000000 Se
   0.7039379770000000    0.3706050230000000    0.1111108500000000 Se
   0.2983235370000000    0.3341213430000000    0.6669905100000000 Se
   0.6293949870000000    0.0000000830000000    0.4999999500000000 Se
   0.5002213970000000    0.2959294830000000    0.5554586600000000 Se
   0.0372715370000000    0.2039380330000000    0.7777780200000000 Se
   0.2039380270000000    0.0372715630000000    0.7777780200000000 Se
   0.4999999970000000    0.6293949830000000    0.0555553300000000 Se
   0.3333335170000000    0.1293950530000000    0.7222225100000000 Se
   0.5361714670000000    0.5374099730000000    0.2776684900000000 Se
   0.3345549570000000    0.6292813730000000    0.3897031000000000 Se
   0.6666664870000000    0.4627285130000000    0.0555553300000000 Se
   0.0372715370000000    0.5372714830000000    0.6111109800000000 Se
   0.5372714970000000    0.0372715730000000    0.6111109800000000 Se
   0.1666665270000000    0.7960619430000000    0.0555553300000000 Se
   0.6293949870000000    0.1666665530000000    0.4999999500000000 Se
   0.6293949870000000    0.5000000030000000    0.1666663600000000 Se
   0.6666149870000000    0.2958756630000000    0.3883788400000000 Se
   0.0000000470000000    0.7960619430000000    0.2222223800000000 Se
   0.4627285070000000    0.1666665530000000    0.6666664900000000 Se
   0.4627284970000000    0.6666664730000000    0.1666663600000000 Se
   0.0372715370000000    0.7039379529999999    0.4444444400000000 Se
   0.7039379870000000    0.0372715830000000    0.4444444400000000 Se
   0.4999999970000000    0.6293949830000000    0.2222223800000000 Se
   0.2039380170000000    0.5372714830000000    0.6111109800000000 Se
   0.5372714870000000    0.2039380430000000    0.6111109800000000 Se
   0.0000000370000000    0.6293949630000000    0.5555554600000000 Se
   0.6666664870000000    0.4627285130000000    0.2222223800000000 Se
   0.7038235470000000    0.3702565230000000    0.2772073100000000 Se
   0.1666665270000000    0.7960619430000000    0.2222223800000000 Se
   0.1293950270000000    0.0000000630000000    0.8333335400000000 Se
   0.1293950370000000    0.4999999930000000    0.6666664900000000 Se
   0.1293950270000000    0.6666664630000000    0.4999999500000000 Se
   0.3713063870000000    0.7040428430000000    0.2785284900000000 Se
   0.8333334770000000    0.1293950730000000    0.0555553300000000 Se
   0.3356515870000000    0.2978647230000000    0.7231353700000001 Se
   0.1666665270000000    0.6293949730000000    0.5555554600000000 Se
   0.2039380270000000    0.7039379630000000    0.4444444400000000 Se
   0.7039379770000000    0.2039380530000000    0.4444444400000000 Se
   0.0000000470000000    0.4627284930000000    0.7222225100000000 Se
   0.1293950370000000    0.1666665430000000    0.8333335400000000 Se
   0.1293950270000000    0.8333334330000000    0.1666663600000000 Se
   0.0372715370000000    0.3706050030000000    0.7777780200000000 Se
   0.3706050070000000    0.0372715630000000    0.7777780200000000 Se
   0.7960619670000000    0.0000000830000000    0.3333334100000000 Se
   0.3333335170000000    0.7960619530000000    0.0555553300000000 Se
   0.6286700870000000    0.4996576330000000    0.3336686100000000 Se
   0.6298044070000000    0.3333977030000000    0.4996075700000000 Se
   0.8333334770000000    0.1293950730000000    0.2222223800000000 Se
   0.1666665270000000    0.4627284930000000    0.7222225100000000 Se
   0.4950689270000000    0.4633241830000000    0.5534257400000000 Se
   0.4641481770000000    0.6658106530000000    0.3329856900000000 Se
   0.4631095070000000    0.3338997030000000    0.6662589700000000 Se
   0.6666664870000000    0.1293950630000000    0.5555554600000000 Se
   0.5316170870000000    0.5366556430000000    0.4466375200000000 Se
   0.0372715470000000    0.8706049330000000    0.1111108500000000 Se
   0.8706049670000000    0.0372715830000000    0.1111108500000000 Se
   0.7960619770000000    0.1666665630000000    0.3333334100000000 Se
   0.7960619670000000    0.3333335330000000    0.1666663600000000 Se
   0.2961982670000000    0.4998218230000000    0.6661534099999999 Se
   0.2960620170000000    0.0000000730000000    0.8333335400000000 Se
   0.2963163670000000    0.6665477230000000    0.5004040900000000 Se
   0.2039380270000000    0.3706050130000000    0.7777780200000000 Se
   0.3706050070000000    0.2039380430000000    0.7777780200000000 Se
   0.0000000470000000    0.7960619430000000    0.3888889200000000 Se
   0.8333334670000000    0.2960620430000000    0.0555553300000000 Se
   0.4999999970000000    0.1293950530000000    0.7222225100000000 Se
   0.3333335170000000    0.7960619530000000    0.2222223800000000 Se
   0.5007429470000000    0.6280172530000000    0.3890961600000000 Se
   0.5372714970000000    0.7039379730000001    0.1111108500000000 Se
   0.7039379770000000    0.5372715030000000    0.1111108500000000 Se
   0.5372102670000000    0.3710340230000000    0.6103820200000000 Se
   0.3713164870000000    0.5370579930000000    0.6108308400000000 Se
   0.0000000470000000    0.1293950430000000    0.8888890500000000 Se
   0.6662898070000000    0.4626991130000000    0.3891799600000000 Se
   0.2960620170000000    0.1666665430000000    0.8333335400000000 Se
   0.2960620170000000    0.8333334430000000    0.1666663600000000 Se
   0.2039380270000000    0.8706049330000000    0.1111108500000000 Se
   0.8706049670000000    0.2039380630000000    0.1111108500000000 Se
   0.1666665270000000    0.7960619430000000    0.3888889200000000 Se
   0.3335418370000000    0.6294415730000000    0.5561181700000000 Se
   0.1293950270000000    0.3333335130000000    0.8333335400000000 Se
   0.1293950270000000    0.8333334330000000    0.3333334100000000 Se
   0.7041137270000000    0.3705588030000000    0.4438777900000000 Se
   0.3711567370000000    0.7039639930000000    0.4450763800000000 Se
   0.8333334670000000    0.2960620430000000    0.2222223800000000 Se
   0.1666665270000000    0.1293950430000000    0.8888890500000000 Se
   0.0372715470000000    0.8706049330000000    0.2777778900000000 Se
   0.8706049670000000    0.0372715830000000    0.2777778900000000 Se
   0.6672616370000000    0.2960371630000000    0.5549536200000000 Se
   0.6666664770000000    0.6293949830000000    0.0555553300000000 Se
   0.3325002870000000    0.4624699030000000    0.7223259700000000 Se
   0.5377748170000000    0.7020729430000000    0.2768755900000000 Se
   0.7030974970000000    0.5369856730000000    0.2779365900000000 Se
   0.5007712670000000    0.2969254030000000    0.7218589300000000 Se
   0.8333334770000000    0.1293950730000000    0.3888889200000000 Se
   0.6293949870000000    0.1666665530000000    0.6666664900000000 Se
   0.6293949870000000    0.6666664830000000    0.1666663600000000 Se
   0.0372715370000000    0.7039379529999999    0.6111109800000000 Se
   0.7039379870000000    0.0372715830000000    0.6111109800000000 Se
   0.2039380270000000    0.8706049330000000    0.2777778900000000 Se
   0.8706049670000000    0.2039380630000000    0.2777778900000000 Se
   0.0000000370000000    0.2960620130000000    0.8888890500000000 Se
   0.7960619670000000    0.0000000830000000    0.4999999500000000 Se
   0.4999999970000000    0.7960619530000000    0.0555553300000000 Se
   0.6666664770000000    0.6293949830000000    0.2222223800000000 Se
   0.2960620170000000    0.3333335230000000    0.8333335400000000 Se
   0.2960620170000000    0.8333334430000000    0.3333334100000000 Se
   0.0372715370000000    0.5372714830000000    0.7777780200000000 Se
   0.5372714970000000    0.0372715730000000    0.7777780200000000 Se
   0.3333335170000000    0.7960619530000000    0.3888889200000000 Se
   0.4578275270000000    0.4967471530000000    0.6673727100000000 Se
   0.1666665270000000    0.2960620230000000    0.8888890500000000 Se
   0.3706050070000000    0.8706049430000000    0.1111108500000000 Se
   0.4623801070000000    0.6667751530000000    0.4992349700000000 Se
   0.8706049670000000    0.3706050330000000    0.1111108500000000 Se
   0.4627284970000000    0.0000000730000000    0.8333335400000000 Se
   0.2039380270000000    0.7039379630000000    0.6111109800000000 Se
   0.7039379770000000    0.2039380530000000    0.6111109800000000 Se
   0.7960619770000000    0.1666665630000000    0.4999999500000000 Se
   0.7960619770000000    0.5000000130000000    0.1666663600000000 Se
   0.8333334670000000    0.4627285130000000    0.0555553300000000 Se
   0.0000000370000000    0.6293949630000000    0.7222225100000000 Se
   0.3333335170000000    0.1293950530000000    0.8888890500000000 Se
   0.0000000370000000    0.9627284130000000    0.0555553300000000 Se
   0.4999999970000000    0.7960619530000000    0.2222223800000000 Se
   0.8333334670000000    0.2960620430000000    0.3888889200000000 Se
   0.0372715370000000    0.2039380330000000    0.9444445700000000 Se
   0.2039380270000000    0.0372715630000000    0.9444445700000000 Se
   0.2039380170000000    0.5372714830000000    0.7777780200000000 Se
   0.5315620470000000    0.5298777730000001    0.6096452200000000 Se
   0.5372714870000000    0.2039380430000000    0.7777780200000000 Se
   0.4627285070000000    0.1666665530000000    0.8333335400000000 Se
   0.4627285070000000    0.8333334529999999    0.1666663600000000 Se
   0.0000000470000000    0.7960619430000000    0.5555554600000000 Se
   0.4972490270000000    0.6258130330000000    0.5535542400000000 Se
   0.1666665270000000    0.6293949730000000    0.7222225100000000 Se
   0.6301543070000000    0.3329160030000000    0.6655203300000000 Se
   0.6291924570000000    0.6661166530000000    0.3337440500000000 Se
   0.9627285470000000    0.1666665330000000    0.0000000800000000 Se
   0.0372715470000000    0.8706049330000000    0.4444444400000000 Se
   0.8706049670000000    0.0372715830000000    0.4444444400000000 Se
   0.1666665270000000    0.9627284230000001    0.0555553300000000 Se
   0.8333334670000000    0.4627285130000000    0.2222223800000000 Se
   0.1293950370000000    0.4999999930000000    0.8333335400000000 Se
   0.1293950270000000    0.8333334330000000    0.4999999500000000 Se
   0.6657108570000000    0.4632739330000000    0.5550695400000000 Se
   0.1666665270000000    0.7960619430000000    0.5555554600000000 Se
   0.3706050070000000    0.8706049430000000    0.2777778900000000 Se
   0.8706049670000000    0.3706050330000000    0.2777778900000000 Se
   0.0000000370000000    0.9627284130000000    0.2222223800000000 Se
   0.7024897470000000    0.5367815230000000    0.4449221000000000 Se
   0.5372763470000000    0.7034947230000000    0.4440948900000000 Se
   0.6666664870000000    0.1293950630000000    0.7222225100000000 Se
   0.4988050670000000    0.4626254530000000    0.7223763500000000 Se
   0.3333335070000000    0.2960620230000000    0.8888890500000000 Se
   0.6662156870000000    0.6290096630000001    0.3895965400000000 Se
   0.7960619670000000    0.3333335330000000    0.4999999500000000 Se
   0.7960619770000000    0.5000000130000000    0.3333334100000000 Se
   0.2039380270000000    0.8706049330000000    0.4444444400000000 Se
   0.8706049670000000    0.2039380630000000    0.4444444400000000 Se
   0.0000000470000000    0.4627284930000000    0.8888890500000000 Se
   0.1666665270000000    0.9627284230000001    0.2222223800000000 Se
   0.3707522570000000    0.7041320129999999    0.6116115200000000 Se
   0.7052551070000000    0.3707350030000000    0.6103161000000000 Se
   0.4627284970000000    0.3333335230000000    0.8333335400000000 Se
   0.4627285070000000    0.8333334529999999    0.3333334100000000 Se
   0.8333334770000000    0.1293950730000000    0.5555554600000000 Se
   0.3336357370000000    0.6297554530000000    0.7227912700000000 Se
   0.0372715370000000    0.3706050030000000    0.9444445700000000 Se
   0.3706050070000000    0.0372715630000000    0.9444445700000000 Se
   0.3706050070000000    0.5372714930000000    0.7777780200000000 Se
   0.5372714970000000    0.3706050230000000    0.7777780200000000 Se
   0.1666665270000000    0.4627284930000000    0.8888890500000000 Se
   0.2960620170000000    0.4999999930000000    0.8333335400000000 Se
   0.2960620170000000    0.8333334430000000    0.4999999500000000 Se
   0.4999999970000000    0.7960619530000000    0.3888889200000000 Se
   0.3333335070000000    0.9627284230000001    0.0555553300000000 Se
   0.1293950270000000    0.9999999130000000    0.1666663600000000 Se
   0.1293950370000000    0.1666665430000000    0.9999998200000000 Se
   0.6672269570000000    0.2959641130000000    0.7214764100000000 Se
   0.3333335170000000    0.7960619530000000    0.5555554600000000 Se
   0.4999999970000000    0.1293950530000000    0.8888890500000000 Se
   0.5372714870000000    0.8706049430000000    0.1111108500000000 Se
   0.8706049570000000    0.5372715030000000    0.1111108500000000 Se
   0.8333334670000000    0.4627285130000000    0.3888889200000000 Se
   0.9627284570000000    0.1666665630000000    0.3333334100000000 Se
   0.9627284570000000    0.3333335430000000    0.1666663600000000 Se
   0.2039380270000000    0.3706050130000000    0.9444445700000000 Se
   0.3706050070000000    0.2039380430000000    0.9444445700000000 Se
   0.0000000370000000    0.9627284130000000    0.3888889200000000 Se
   0.6666664870000000    0.7960619630000000    0.0555553300000000 Se
   0.3333335070000000    0.9627284230000001    0.2222223800000000 Se
   0.6290390670000000    0.5004309830000000    0.6663134500000000 Se
   0.6293949870000000    0.0000000830000000    0.8333335400000000 Se
   0.8333334670000000    0.2960620430000000    0.5555554600000000 Se
   0.6298274570000000    0.6666281030000000    0.4999731300000000 Se
   0.3706050070000000    0.8706049430000000    0.4444444400000000 Se
   0.8706049670000000    0.3706050330000000    0.4444444400000000 Se
   0.8333334670000000    0.6293949930000000    0.0555553300000000 Se
   0.0372715370000000    0.7039379529999999    0.7777780200000000 Se
   0.7039379870000000    0.0372715830000000    0.7777780200000000 Se
   0.1666665270000000    0.9627284230000001    0.3888889200000000 Se
   0.7960619770000000    0.1666665630000000    0.6666664900000000 Se
   0.7960619670000000    0.6666664830000000    0.1666663600000000 Se
   0.2960620070000000    0.9999999130000000    0.1666663600000000 Se
   0.2960620170000000    0.1666665430000000    0.9999998200000000 Se
   0.3333335170000000    0.4627285030000000    0.8888890500000000 Se
   0.6293949870000000    0.1666665530000000    0.8333335400000000 Se
   0.6293949870000000    0.8333334529999999    0.1666663600000000 Se
   0.5372714870000000    0.8706049430000000    0.2777778900000000 Se
   0.8706049570000000    0.5372715030000000    0.2777778900000000 Se
   0.1293950270000000    0.3333335130000000    0.9999998200000000 Se
   0.4999999970000000    0.2960620330000000    0.8888890500000000 Se
   0.6666664870000000    0.7960619630000000    0.2222223800000000 Se
   0.0372715470000000    0.8706049330000000    0.6111109800000000 Se
   0.8706049670000000    0.0372715830000000    0.6111109800000000 Se
   0.8333334670000000    0.6293949930000000    0.2222223800000000 Se
   0.2039380270000000    0.7039379630000000    0.7777780200000000 Se
   0.7039379770000000    0.2039380530000000    0.7777780200000000 Se
   0.5366741670000000    0.6995891730000000    0.6094683400000001 Se
   0.6667474570000000    0.6295455129999999    0.5558464000000000 Se
   0.0000000470000000    0.7960619430000000    0.7222225100000000 Se
   0.1293950270000000    0.6666664630000000    0.8333335400000000 Se
   0.1293950270000000    0.8333334330000000    0.6666664900000000 Se
   0.7036311270000000    0.5373575229999999    0.6108107600000000 Se
   0.4627285070000000    0.5000000030000000    0.8333335400000000 Se
   0.4627285070000000    0.8333334529999999    0.4999999500000000 Se
   0.4993836970000000    0.6269657330000000    0.7215945900000000 Se
   0.2039380270000000    0.8706049330000000    0.6111109800000000 Se
   0.8706049670000000    0.2039380630000000    0.6111109800000000 Se
   0.6660916070000000    0.4630465330000000    0.7220371700000000 Se
   0.4999999970000000    0.9627284330000000    0.0555553300000000 Se
   0.0372715370000000    0.5372714830000000    0.9444445700000000 Se
   0.5372714970000000    0.0372715730000000    0.9444445700000000 Se
   0.1666665270000000    0.7960619430000000    0.7222225100000000 Se
   0.0000000370000000    0.6293949630000000    0.8888890500000000 Se
   0.3333335070000000    0.9627284230000001    0.3888889200000000 Se
   0.7960619670000000    0.3333335330000000    0.6666664900000000 Se
   0.7960619670000000    0.6666664830000000    0.3333334100000000 Se
   0.4999999970000000    0.7960619530000000    0.5555554600000000 Se
   0.2960620170000000    0.3333335230000000    0.9999998200000000 Se
   0.6293949870000000    0.3333335330000000    0.8333335400000000 Se
   0.6293949870000000    0.8333334529999999    0.3333334100000000 Se
   0.9627284570000000    0.1666665630000000    0.4999999500000000 Se
   0.9627284570000000    0.5000000130000000    0.1666663600000000 Se
   0.1666665270000000    0.6293949730000000    0.8888890500000000 Se
   0.8333334670000000    0.4627285130000000    0.5555554600000000 Se
   0.2039380170000000    0.5372714830000000    0.9444445700000000 Se
   0.5372714870000000    0.2039380430000000    0.9444445700000000 Se
   0.4999999970000000    0.9627284330000000    0.2222223800000000 Se
   0.2960620170000000    0.6666664730000000    0.8333335400000000 Se
   0.2960620170000000    0.8333334430000000    0.6666664900000000 Se
   0.6666664870000000    0.7960619630000000    0.3888889200000000 Se
   0.8333334770000000    0.1293950730000000    0.7222225100000000 Se
   0.0000000370000000    0.9627284130000000    0.5555554600000000 Se
   0.3706050070000000    0.7039379630000000    0.7777780200000000 Se
   0.7039379770000000    0.3706050230000000    0.7777780200000000 Se
   0.4627284970000000    0.9999999230000000    0.1666663600000000 Se
   0.4627285070000000    0.1666665530000000    0.9999998200000000 Se
   0.8333334670000000    0.6293949930000000    0.3888889200000000 Se
   0.5372714870000000    0.8706049430000000    0.4444444400000000 Se
   0.8706049570000000    0.5372715030000000    0.4444444400000000 Se
   0.6666664870000000    0.1293950630000000    0.8888890500000000 Se
   0.4999999970000000    0.4627285030000000    0.8888890500000000 Se
   0.1666665270000000    0.9627284230000001    0.5555554600000000 Se
   0.7039379770000000    0.8706049530000000    0.1111108500000000 Se
   0.8706049670000000    0.7039379830000000    0.1111108500000000 Se
   0.3333335170000000    0.7960619530000000    0.7222225100000000 Se
   0.1293950370000000    0.4999999930000000    0.9999998200000000 Se
   0.3706050070000000    0.8706049430000000    0.6111109800000000 Se
   0.8706049670000000    0.3706050330000000    0.6111109800000000 Se
   0.6289143570000000    0.6654437030000000    0.6666331100000000 Se
   0.9627284570000000    0.3333335430000000    0.4999999500000000 Se
   0.9627284570000000    0.5000000130000000    0.3333334100000000 Se
   0.3333335070000000    0.6293949730000000    0.8888890500000000 Se
   0.8333334670000000    0.2960620430000000    0.7222225100000000 Se
   0.3706050070000000    0.5372714930000000    0.9444445700000000 Se
   0.5372714970000000    0.3706050230000000    0.9444445700000000 Se
   0.6666664770000000    0.2960620330000000    0.8888890500000000 Se
   0.4627284970000000    0.3333335230000000    0.9999998200000000 Se
   0.4999999970000000    0.9627284330000000    0.3888889200000000 Se
   0.7960619670000000    0.0000000830000000    0.8333335400000000 Se
   0.7960619770000000    0.5000000130000000    0.6666664900000000 Se
   0.7960619670000000    0.6666664830000000    0.4999999500000000 Se
   0.7039379770000000    0.8706049530000000    0.2777778900000000 Se
   0.8706049670000000    0.7039379830000000    0.2777778900000000 Se
   0.8333334670000000    0.7960619630000000    0.0555553300000000 Se
   0.2960620170000000    0.4999999930000000    0.9999998200000000 Se
   0.6293949870000000    0.5000000030000000    0.8333335400000000 Se
   0.6293949870000000    0.8333334529999999    0.4999999500000000 Se
   0.3333335070000000    0.9627284230000001    0.5555554600000000 Se
   0.4627284970000000    0.6666664730000000    0.8333335400000000 Se
   0.4627285070000000    0.8333334529999999    0.6666664900000000 Se
   0.7960619770000000    0.1666665630000000    0.8333335400000000 Se
   0.7960619770000000    0.8333334630000000    0.1666663600000000 Se
   0.6663824570000000    0.6287508330000000    0.7225140500000000 Se
   0.0372715470000000    0.8706049330000000    0.7777780200000000 Se
   0.8706049670000000    0.0372715830000000    0.7777780200000000 Se
   0.6666664770000000    0.9627284330000000    0.0555553300000000 Se
   0.8333334670000000    0.7960619630000000    0.2222223800000000 Se
   0.6666664870000000    0.7960619630000000    0.5555554600000000 Se
   0.0372715370000000    0.7039379529999999    0.9444445700000000 Se
   0.7039379870000000    0.0372715830000000    0.9444445700000000 Se
   0.5372714970000000    0.7039379730000001    0.7777780200000000 Se
   0.7039379770000000    0.5372715030000000    0.7777780200000000 Se
   0.9627284570000000    0.1666665630000000    0.6666664900000000 Se
   0.9627284570000000    0.6666664930000000    0.1666663600000000 Se
   0.8333334670000000    0.6293949930000000    0.5555554600000000 Se
   0.2039380270000000    0.8706049330000000    0.7777780200000000 Se
   0.8706049670000000    0.2039380630000000    0.7777780200000000 Se
   0.4999999970000000    0.7960619530000000    0.7222225100000000 Se
   0.5372714870000000    0.8706049430000000    0.6111109800000000 Se
   0.8706049570000000    0.5372715030000000    0.6111109800000000 Se
   0.6666664770000000    0.9627284330000000    0.2222223800000000 Se
   0.0000000470000000    0.7960619430000000    0.8888890500000000 Se
   0.6293949870000000    0.9999999330000000    0.1666663600000000 Se
   0.6293949870000000    0.1666665530000000    0.9999998200000000 Se
   0.2039380270000000    0.7039379630000000    0.9444445700000000 Se
   0.7039379770000000    0.2039380530000000    0.9444445700000000 Se
   0.8333334670000000    0.4627285130000000    0.7222225100000000 Se
   0.4999999970000000    0.6293949830000000    0.8888890500000000 Se
   0.7960619670000000    0.3333335330000000    0.8333335400000000 Se
   0.7960619770000000    0.8333334630000000    0.3333334100000000 Se
   0.0000000370000000    0.9627284130000000    0.7222225100000000 Se
   0.6666664870000000    0.4627285130000000    0.8888890500000000 Se
   0.7039379770000000    0.8706049530000000    0.4444444400000000 Se
   0.8706049670000000    0.7039379830000000    0.4444444400000000 Se
   0.1666665270000000    0.7960619430000000    0.8888890500000000 Se
   0.1293950270000000    0.9999999130000000    0.6666664900000000 Se
   0.1293950270000000    0.6666664630000000    0.9999998200000000 Se
   0.4627285070000000    0.5000000030000000    0.9999998200000000 Se
   0.1666665270000000    0.9627284230000001    0.7222225100000000 Se
   0.8333334670000000    0.7960619630000000    0.3888889200000000 Se
   0.9627284570000000    0.3333335430000000    0.6666664900000000 Se
   0.9627284570000000    0.6666664930000000    0.3333334100000000 Se
   0.4999999970000000    0.9627284330000000    0.5555554600000000 Se
   0.3706050070000000    0.8706049430000000    0.7777780200000000 Se
   0.8706049670000000    0.3706050330000000    0.7777780200000000 Se
   0.8333334770000000    0.1293950730000000    0.8888890500000000 Se
   0.6293949870000000    0.3333335330000000    0.9999998200000000 Se
   0.6666664770000000    0.9627284330000000    0.3888889200000000 Se
   0.3706050070000000    0.7039379630000000    0.9444445700000000 Se
   0.7039379770000000    0.3706050230000000    0.9444445700000000 Se
   0.2960620070000000    0.9999999130000000    0.6666664900000000 Se
   0.2960620170000000    0.6666664730000000    0.9999998200000000 Se
   0.3333335170000000    0.7960619530000000    0.8888890500000000 Se
   0.6293949870000000    0.6666664830000000    0.8333335400000000 Se
   0.6293949870000000    0.8333334529999999    0.6666664900000000 Se
   0.3333335070000000    0.9627284230000001    0.7222225100000000 Se
   0.8333334670000000    0.2960620430000000    0.8888890500000000 Se
   0.7960619770000000    0.5000000130000000    0.8333335400000000 Se
   0.7960619770000000    0.8333334630000000    0.4999999500000000 Se
   0.6666664870000000    0.7960619630000000    0.7222225100000000 Se
   0.8333334670000000    0.6293949930000000    0.7222225100000000 Se
   0.9627284570000000    0.5000000130000000    0.6666664900000000 Se
   0.9627284570000000    0.6666664930000000    0.4999999500000000 Se
   0.8333334670000000    0.9627284430000000    0.0555553300000000 Se
   0.7039379770000000    0.8706049530000000    0.6111109800000000 Se
   0.8706049670000000    0.7039379830000000    0.6111109800000000 Se
   0.6666664770000000    0.6293949830000000    0.8888890500000000 Se
   0.8333334670000000    0.7960619630000000    0.5555554600000000 Se
   0.6293949870000000    0.5000000030000000    0.9999998200000000 Se
   0.9627284570000000    0.1666665630000000    0.8333335400000000 Se
   0.9627284570000000    0.8333334630000000    0.1666663600000000 Se
   0.0372715470000000    0.8706049330000000    0.9444445700000000 Se
   0.5372714870000000    0.8706049430000000    0.7777780200000000 Se
   0.8706049670000000    0.0372715830000000    0.9444445700000000 Se
   0.8706049570000000    0.5372715030000000    0.7777780200000000 Se
   0.4627284970000000    0.9999999230000000    0.6666664900000000 Se
   0.4627284970000000    0.6666664730000000    0.9999998200000000 Se
   0.7960619670000000    0.9999999330000000    0.1666663600000000 Se
   0.7960619770000000    0.1666665630000000    0.9999998200000000 Se
   0.8333334670000000    0.9627284430000000    0.2222223800000000 Se
   0.4999999970000000    0.7960619530000000    0.8888890500000000 Se
   0.5372714970000000    0.7039379730000001    0.9444445700000000 Se
   0.7039379770000000    0.5372715030000000    0.9444445700000000 Se
   0.6666664770000000    0.9627284330000000    0.5555554600000000 Se
   0.2039380270000000    0.8706049330000000    0.9444445700000000 Se
   0.8706049670000000    0.2039380630000000    0.9444445700000000 Se
   0.4999999970000000    0.9627284330000000    0.7222225100000000 Se
   0.8333334670000000    0.4627285130000000    0.8888890500000000 Se
   0.1293950270000000    0.8333334330000000    0.9999998200000000 Se
   0.0000000370000000    0.9627284130000000    0.8888890500000000 Se
   0.9627284570000000    0.3333335430000000    0.8333335400000000 Se
   0.9627284570000000    0.8333334630000000    0.3333334100000000 Se
   0.1666665270000000    0.9627284230000001    0.8888890500000000 Se
   0.7960619670000000    0.3333335330000000    0.9999998200000000 Se
   0.7960619670000000    0.6666664830000000    0.8333335400000000 Se
   0.7960619770000000    0.8333334630000000    0.6666664900000000 Se
   0.8333334670000000    0.9627284430000000    0.3888889200000000 Se
   0.2960620170000000    0.8333334430000000    0.9999998200000000 Se
   0.3706050070000000    0.8706049430000000    0.9444445700000000 Se
   0.8706049670000000    0.3706050330000000    0.9444445700000000 Se
   0.3333335070000000    0.9627284230000001    0.8888890500000000 Se
   0.6293949870000000    0.9999999330000000    0.6666664900000000 Se
   0.6293949870000000    0.6666664830000000    0.9999998200000000 Se
   0.8333334670000000    0.7960619630000000    0.7222225100000000 Se
   0.7039379770000000    0.8706049530000000    0.7777780200000000 Se
   0.8706049670000000    0.7039379830000000    0.7777780200000000 Se
   0.6666664870000000    0.7960619630000000    0.8888890500000000 Se
   0.9627284570000000    0.5000000130000000    0.8333335400000000 Se
   0.9627284570000000    0.8333334630000000    0.4999999500000000 Se
   0.8333334670000000    0.6293949930000000    0.8888890500000000 Se
   0.7960619770000000    0.5000000130000000    0.9999998200000000 Se
   0.6666664770000000    0.9627284330000000    0.7222225100000000 Se
   0.4627285070000000    0.8333334529999999    0.9999998200000000 Se
   0.8333334670000000    0.9627284430000000    0.5555554600000000 Se
   0.5372714870000000    0.8706049430000000    0.9444445700000000 Se
   0.8706049570000000    0.5372715030000000    0.9444445700000000 Se
   0.9627285370000001    0.9999999030000000    0.1666663600000000 Se
   0.4999999970000000    0.9627284330000000    0.8888890500000000 Se
   0.9627285370000001    0.9999999030000000    0.3333334100000000 Se
   0.9627284570000000    0.3333335430000000    0.9999998200000000 Se
   0.9627284570000000    0.6666664930000000    0.8333335400000000 Se
   0.9627284570000000    0.8333334630000000    0.6666664900000000 Se
   0.7960619670000000    0.9999999330000000    0.6666664900000000 Se
   0.7960619670000000    0.6666664830000000    0.9999998200000000 Se
   0.6293949870000000    0.8333334529999999    0.9999998200000000 Se
   0.8333334670000000    0.7960619630000000    0.8888890500000000 Se
   0.8333334670000000    0.9627284430000000    0.7222225100000000 Se
   0.7039379770000000    0.8706049530000000    0.9444445700000000 Se
   0.8706049670000000    0.7039379830000000    0.9444445700000000 Se
   0.6666664770000000    0.9627284330000000    0.8888890500000000 Se
   0.9627285370000001    0.9999999030000000    0.4999999500000000 Se
   0.9627284570000000    0.5000000130000000    0.9999998200000000 Se
   0.7960619770000000    0.8333334630000000    0.9999998200000000 Se
   0.9627285370000001    0.9999999030000000    0.6666664900000000 Se
   0.9627284570000000    0.6666664930000000    0.9999998200000000 Se
   0.8333334670000000    0.9627284430000000    0.8888890500000000 Se
   0.9627285370000001    0.9999999030000000    0.8333335400000000 Se
   0.9627284570000000    0.8333334630000000    0.9999998200000000 Se
