Mg2
1.0
   1.6015140000000001   -2.7739029999999998    0.0000000000000000
   1.6015140000000001    2.7739029999999998    0.0000000000000000
   0.0000000000000000    0.0000000000000000    5.1266910000000001
Mg
2
direct
   0.3333330000000000    0.6666670000000000    0.2500000000000000 Mg
   0.6666670000000000    0.3333330000000000    0.7500000000000000 Mg
