Manual F-on-O Antisite at [0,0,0]       
   1.0000000000000000     
    11.2707239999999995    0.0000000000000000    0.0000000000000000
     0.0000000000000000   11.2707239999999995    0.0000000000000000
     0.0000000000000000    0.0000000000000000   22.8393189999999997
   Y    Ti   S    F    O 
    36    36    36     1    89
Direct
  0.1666669999999968  0.1666669999999968  0.1661149999999978
  0.1666669999999968  0.5000000000000000  0.1661149999999978
  0.1666669999999968  0.8333330000000032  0.1661149999999978
  0.5000000000000000  0.1666669999999968  0.1661149999999978
  0.5000000000000000  0.5000000000000000  0.1661149999999978
  0.5000000000000000  0.8333330000000032  0.1661149999999978
  0.8333330000000032  0.1666669999999968  0.1661149999999978
  0.8333330000000032  0.5000000000000000  0.1661149999999978
  0.8333330000000032  0.8333330000000032  0.1661149999999978
  0.0000000000000000  0.0000000000000000  0.3338850000000022
  0.0000000000000000  0.3333330000000032  0.3338850000000022
  0.0000000000000000  0.6666669999999968  0.3338850000000022
  0.3333330000000032  0.0000000000000000  0.3338850000000022
  0.3333330000000032  0.3333330000000032  0.3338850000000022
  0.3333330000000032  0.6666669999999968  0.3338850000000022
  0.6666669999999968  0.0000000000000000  0.3338850000000022
  0.6666669999999968  0.3333330000000032  0.3338850000000022
  0.6666669999999968  0.6666669999999968  0.3338850000000022
  0.0000000000000000  0.0000000000000000  0.6661149999999978
  0.0000000000000000  0.3333330000000032  0.6661149999999978
  0.0000000000000000  0.6666669999999968  0.6661149999999978
  0.3333330000000032  0.0000000000000000  0.6661149999999978
  0.3333330000000032  0.3333330000000032  0.6661149999999978
  0.3333330000000032  0.6666669999999968  0.6661149999999978
  0.6666669999999968  0.0000000000000000  0.6661149999999978
  0.6666669999999968  0.3333330000000032  0.6661149999999978
  0.6666669999999968  0.6666669999999968  0.6661149999999978
  0.1666669999999968  0.1666669999999968  0.8338850000000022
  0.1666669999999968  0.5000000000000000  0.8338850000000022
  0.1666669999999968  0.8333330000000032  0.8338850000000022
  0.5000000000000000  0.1666669999999968  0.8338850000000022
  0.5000000000000000  0.5000000000000000  0.8338850000000022
  0.5000000000000000  0.8333330000000032  0.8338850000000022
  0.8333330000000032  0.1666669999999968  0.8338850000000022
  0.8333330000000032  0.5000000000000000  0.8338850000000022
  0.8333330000000032  0.8333330000000032  0.8338850000000022
  0.1666669999999968  0.1666669999999968  0.4215429999999998
  0.1666669999999968  0.5000000000000000  0.4215420000000023
  0.1666669999999968  0.8333330000000032  0.4215429999999998
  0.5000000000000000  0.1666669999999968  0.4215420000000023
  0.5000000000000000  0.5000000000000000  0.4215420000000023
  0.5000000000000000  0.8333330000000032  0.4215420000000023
  0.8333330000000032  0.1666669999999968  0.4215429999999998
  0.8333330000000032  0.5000000000000000  0.4215420000000023
  0.8333330000000032  0.8333330000000032  0.4215429999999998
  0.0000000000000000  0.0000000000000000  0.0784579999999977
  0.0000000000000000  0.3333330000000032  0.0784579999999977
  0.0000000000000000  0.6666669999999968  0.0784579999999977
  0.3333330000000032  0.0000000000000000  0.0784579999999977
  0.3333330000000032  0.3333330000000032  0.0784570000000002
  0.3333330000000032  0.6666669999999968  0.0784570000000002
  0.6666669999999968  0.0000000000000000  0.0784579999999977
  0.6666669999999968  0.3333330000000032  0.0784570000000002
  0.6666669999999968  0.6666669999999968  0.0784570000000002
  0.0000000000000000  0.0000000000000000  0.9215420000000023
  0.0000000000000000  0.3333330000000032  0.9215420000000023
  0.0000000000000000  0.6666669999999968  0.9215420000000023
  0.3333330000000032  0.0000000000000000  0.9215420000000023
  0.3333330000000032  0.3333330000000032  0.9215429999999998
  0.3333330000000032  0.6666669999999968  0.9215429999999998
  0.6666669999999968  0.0000000000000000  0.9215420000000023
  0.6666669999999968  0.3333330000000032  0.9215429999999998
  0.6666669999999968  0.6666669999999968  0.9215429999999998
  0.1666669999999968  0.1666669999999968  0.5784579999999977
  0.1666669999999968  0.5000000000000000  0.5784579999999977
  0.1666669999999968  0.8333330000000032  0.5784570000000002
  0.5000000000000000  0.1666669999999968  0.5784579999999977
  0.5000000000000000  0.5000000000000000  0.5784579999999977
  0.5000000000000000  0.8333330000000032  0.5784579999999977
  0.8333330000000032  0.1666669999999968  0.5784570000000002
  0.8333330000000032  0.5000000000000000  0.5784579999999977
  0.8333330000000032  0.8333330000000032  0.5784579999999977
  0.1666669999999968  0.1666669999999968  0.2952089999999998
  0.1666669999999968  0.5000000000000000  0.2952089999999998
  0.1666669999999968  0.8333330000000032  0.2952089999999998
  0.5000000000000000  0.1666669999999968  0.2952089999999998
  0.5000000000000000  0.5000000000000000  0.2952089999999998
  0.5000000000000000  0.8333330000000032  0.2952089999999998
  0.8333330000000032  0.1666669999999968  0.2952089999999998
  0.8333330000000032  0.5000000000000000  0.2952089999999998
  0.8333330000000032  0.8333330000000032  0.2952089999999998
  0.0000000000000000  0.0000000000000000  0.2047910000000002
  0.0000000000000000  0.3333330000000032  0.2047910000000002
  0.0000000000000000  0.6666669999999968  0.2047910000000002
  0.3333330000000032  0.0000000000000000  0.2047910000000002
  0.3333330000000032  0.3333330000000032  0.2047910000000002
  0.3333330000000032  0.6666669999999968  0.2047910000000002
  0.6666669999999968  0.0000000000000000  0.2047910000000002
  0.6666669999999968  0.3333330000000032  0.2047910000000002
  0.6666669999999968  0.6666669999999968  0.2047910000000002
  0.0000000000000000  0.0000000000000000  0.7952089999999998
  0.0000000000000000  0.3333330000000032  0.7952089999999998
  0.0000000000000000  0.6666669999999968  0.7952089999999998
  0.3333330000000032  0.0000000000000000  0.7952089999999998
  0.3333330000000032  0.3333330000000032  0.7952089999999998
  0.3333330000000032  0.6666669999999968  0.7952089999999998
  0.6666669999999968  0.0000000000000000  0.7952089999999998
  0.6666669999999968  0.3333330000000032  0.7952089999999998
  0.6666669999999968  0.6666669999999968  0.7952089999999998
  0.1666669999999968  0.1666669999999968  0.7047910000000002
  0.1666669999999968  0.5000000000000000  0.7047910000000002
  0.1666669999999968  0.8333330000000032  0.7047910000000002
  0.5000000000000000  0.1666669999999968  0.7047910000000002
  0.5000000000000000  0.5000000000000000  0.7047910000000002
  0.5000000000000000  0.8333330000000032  0.7047910000000002
  0.8333330000000032  0.1666669999999968  0.7047910000000002
  0.8333330000000032  0.5000000000000000  0.7047910000000002
  0.8333330000000032  0.8333330000000032  0.7047910000000002
  0.0000000000000000  0.0000000000000000  0.0000000000000000
  0.0000000000000000  0.3333330000000032  0.0000000000000000
  0.0000000000000000  0.6666669999999968  0.0000000000000000
  0.3333330000000032  0.0000000000000000  0.0000000000000000
  0.3333330000000032  0.3333330000000032  0.0000000000000000
  0.3333330000000032  0.6666669999999968  0.0000000000000000
  0.6666669999999968  0.0000000000000000  0.0000000000000000
  0.6666669999999968  0.3333330000000032  0.0000000000000000
  0.6666669999999968  0.6666669999999968  0.0000000000000000
  0.0000000000000000  0.1666669999999968  0.4010159999999985
  0.0000000000000000  0.5000000000000000  0.4010159999999985
  0.0000000000000000  0.8333330000000032  0.4010159999999985
  0.3333330000000032  0.1666669999999968  0.4010159999999985
  0.3333330000000032  0.5000000000000000  0.4010159999999985
  0.3333330000000032  0.8333330000000032  0.4010159999999985
  0.6666669999999968  0.1666669999999968  0.4010159999999985
  0.6666669999999968  0.5000000000000000  0.4010159999999985
  0.6666669999999968  0.8333330000000032  0.4010159999999985
  0.0000000000000000  0.1666669999999968  0.0989840000000015
  0.0000000000000000  0.5000000000000000  0.0989840000000015
  0.0000000000000000  0.8333330000000032  0.0989840000000015
  0.3333330000000032  0.1666669999999968  0.0989840000000015
  0.3333330000000032  0.5000000000000000  0.0989840000000015
  0.3333330000000032  0.8333330000000032  0.0989840000000015
  0.6666669999999968  0.1666669999999968  0.0989840000000015
  0.6666669999999968  0.5000000000000000  0.0989840000000015
  0.6666669999999968  0.8333330000000032  0.0989840000000015
  0.1666669999999968  0.0000000000000000  0.4010159999999985
  0.1666669999999968  0.3333330000000032  0.4010159999999985
  0.1666669999999968  0.6666669999999968  0.4010159999999985
  0.5000000000000000  0.0000000000000000  0.4010159999999985
  0.5000000000000000  0.3333330000000032  0.4010159999999985
  0.5000000000000000  0.6666669999999968  0.4010159999999985
  0.8333330000000032  0.0000000000000000  0.4010159999999985
  0.8333330000000032  0.3333330000000032  0.4010159999999985
  0.8333330000000032  0.6666669999999968  0.4010159999999985
  0.1666669999999968  0.0000000000000000  0.0989840000000015
  0.1666669999999968  0.3333330000000032  0.0989840000000015
  0.1666669999999968  0.6666669999999968  0.0989840000000015
  0.5000000000000000  0.0000000000000000  0.0989840000000015
  0.5000000000000000  0.3333330000000032  0.0989840000000015
  0.5000000000000000  0.6666669999999968  0.0989840000000015
  0.8333330000000032  0.0000000000000000  0.0989840000000015
  0.8333330000000032  0.3333330000000032  0.0989840000000015
  0.8333330000000032  0.6666669999999968  0.0989840000000015
  0.1666669999999968  0.1666669999999968  0.5000000000000000
  0.1666669999999968  0.5000000000000000  0.5000000000000000
  0.1666669999999968  0.8333330000000032  0.5000000000000000
  0.5000000000000000  0.1666669999999968  0.5000000000000000
  0.5000000000000000  0.5000000000000000  0.5000000000000000
  0.5000000000000000  0.8333330000000032  0.5000000000000000
  0.8333330000000032  0.1666669999999968  0.5000000000000000
  0.8333330000000032  0.5000000000000000  0.5000000000000000
  0.8333330000000032  0.8333330000000032  0.5000000000000000
  0.1666669999999968  0.0000000000000000  0.9010159999999985
  0.1666669999999968  0.3333330000000032  0.9010159999999985
  0.1666669999999968  0.6666669999999968  0.9010159999999985
  0.5000000000000000  0.0000000000000000  0.9010159999999985
  0.5000000000000000  0.3333330000000032  0.9010159999999985
  0.5000000000000000  0.6666669999999968  0.9010159999999985
  0.8333330000000032  0.0000000000000000  0.9010159999999985
  0.8333330000000032  0.3333330000000032  0.9010159999999985
  0.8333330000000032  0.6666669999999968  0.9010159999999985
  0.1666669999999968  0.0000000000000000  0.5989840000000015
  0.1666669999999968  0.3333330000000032  0.5989840000000015
  0.1666669999999968  0.6666669999999968  0.5989840000000015
  0.5000000000000000  0.0000000000000000  0.5989840000000015
  0.5000000000000000  0.3333330000000032  0.5989840000000015
  0.5000000000000000  0.6666669999999968  0.5989840000000015
  0.8333330000000032  0.0000000000000000  0.5989840000000015
  0.8333330000000032  0.3333330000000032  0.5989840000000015
  0.8333330000000032  0.6666669999999968  0.5989840000000015
  0.0000000000000000  0.1666669999999968  0.9010159999999985
  0.0000000000000000  0.5000000000000000  0.9010159999999985
  0.0000000000000000  0.8333330000000032  0.9010159999999985
  0.3333330000000032  0.1666669999999968  0.9010159999999985
  0.3333330000000032  0.5000000000000000  0.9010159999999985
  0.3333330000000032  0.8333330000000032  0.9010159999999985
  0.6666669999999968  0.1666669999999968  0.9010159999999985
  0.6666669999999968  0.5000000000000000  0.9010159999999985
  0.6666669999999968  0.8333330000000032  0.9010159999999985
  0.0000000000000000  0.1666669999999968  0.5989840000000015
  0.0000000000000000  0.5000000000000000  0.5989840000000015
  0.0000000000000000  0.8333330000000032  0.5989840000000015
  0.3333330000000032  0.1666669999999968  0.5989840000000015
  0.3333330000000032  0.5000000000000000  0.5989840000000015
  0.3333330000000032  0.8333330000000032  0.5989840000000015
  0.6666669999999968  0.1666669999999968  0.5989840000000015
  0.6666669999999968  0.5000000000000000  0.5989840000000015
  0.6666669999999968  0.8333330000000032  0.5989840000000015

  0.00000000E+00  0.00000000E+00  0.00000000E+00
  0.00000000E+00  0.00000000E+00  0.00000000E+00
  0.00000000E+00  0.00000000E+00  0.00000000E+00
  0.00000000E+00  0.00000000E+00  0.00000000E+00
  0.00000000E+00  0.00000000E+00  0.00000000E+00
  0.00000000E+00  0.00000000E+00  0.00000000E+00
  0.00000000E+00  0.00000000E+00  0.00000000E+00
  0.00000000E+00  0.00000000E+00  0.00000000E+00
  0.00000000E+00  0.00000000E+00  0.00000000E+00
  0.00000000E+00  0.00000000E+00  0.00000000E+00
  0.00000000E+00  0.00000000E+00  0.00000000E+00
  0.00000000E+00  0.00000000E+00  0.00000000E+00
  0.00000000E+00  0.00000000E+00  0.00000000E+00
  0.00000000E+00  0.00000000E+00  0.00000000E+00
  0.00000000E+00  0.00000000E+00  0.00000000E+00
  0.00000000E+00  0.00000000E+00  0.00000000E+00
  0.00000000E+00  0.00000000E+00  0.00000000E+00
  0.00000000E+00  0.00000000E+00  0.00000000E+00
  0.00000000E+00  0.00000000E+00  0.00000000E+00
  0.00000000E+00  0.00000000E+00  0.00000000E+00
  0.00000000E+00  0.00000000E+00  0.00000000E+00
  0.00000000E+00  0.00000000E+00  0.00000000E+00
  0.00000000E+00  0.00000000E+00  0.00000000E+00
  0.00000000E+00  0.00000000E+00  0.00000000E+00
  0.00000000E+00  0.00000000E+00  0.00000000E+00
  0.00000000E+00  0.00000000E+00  0.00000000E+00
  0.00000000E+00  0.00000000E+00  0.00000000E+00
  0.00000000E+00  0.00000000E+00  0.00000000E+00
  0.00000000E+00  0.00000000E+00  0.00000000E+00
  0.00000000E+00  0.00000000E+00  0.00000000E+00
  0.00000000E+00  0.00000000E+00  0.00000000E+00
  0.00000000E+00  0.00000000E+00  0.00000000E+00
  0.00000000E+00  0.00000000E+00  0.00000000E+00
  0.00000000E+00  0.00000000E+00  0.00000000E+00
  0.00000000E+00  0.00000000E+00  0.00000000E+00
  0.00000000E+00  0.00000000E+00  0.00000000E+00
  0.00000000E+00  0.00000000E+00  0.00000000E+00
  0.00000000E+00  0.00000000E+00  0.00000000E+00
  0.00000000E+00  0.00000000E+00  0.00000000E+00
  0.00000000E+00  0.00000000E+00  0.00000000E+00
  0.00000000E+00  0.00000000E+00  0.00000000E+00
  0.00000000E+00  0.00000000E+00  0.00000000E+00
  0.00000000E+00  0.00000000E+00  0.00000000E+00
  0.00000000E+00  0.00000000E+00  0.00000000E+00
  0.00000000E+00  0.00000000E+00  0.00000000E+00
  0.00000000E+00  0.00000000E+00  0.00000000E+00
  0.00000000E+00  0.00000000E+00  0.00000000E+00
  0.00000000E+00  0.00000000E+00  0.00000000E+00
  0.00000000E+00  0.00000000E+00  0.00000000E+00
  0.00000000E+00  0.00000000E+00  0.00000000E+00
  0.00000000E+00  0.00000000E+00  0.00000000E+00
  0.00000000E+00  0.00000000E+00  0.00000000E+00
  0.00000000E+00  0.00000000E+00  0.00000000E+00
  0.00000000E+00  0.00000000E+00  0.00000000E+00
  0.00000000E+00  0.00000000E+00  0.00000000E+00
  0.00000000E+00  0.00000000E+00  0.00000000E+00
  0.00000000E+00  0.00000000E+00  0.00000000E+00
  0.00000000E+00  0.00000000E+00  0.00000000E+00
  0.00000000E+00  0.00000000E+00  0.00000000E+00
  0.00000000E+00  0.00000000E+00  0.00000000E+00
  0.00000000E+00  0.00000000E+00  0.00000000E+00
  0.00000000E+00  0.00000000E+00  0.00000000E+00
  0.00000000E+00  0.00000000E+00  0.00000000E+00
  0.00000000E+00  0.00000000E+00  0.00000000E+00
  0.00000000E+00  0.00000000E+00  0.00000000E+00
  0.00000000E+00  0.00000000E+00  0.00000000E+00
  0.00000000E+00  0.00000000E+00  0.00000000E+00
  0.00000000E+00  0.00000000E+00  0.00000000E+00
  0.00000000E+00  0.00000000E+00  0.00000000E+00
  0.00000000E+00  0.00000000E+00  0.00000000E+00
  0.00000000E+00  0.00000000E+00  0.00000000E+00
  0.00000000E+00  0.00000000E+00  0.00000000E+00
  0.00000000E+00  0.00000000E+00  0.00000000E+00
  0.00000000E+00  0.00000000E+00  0.00000000E+00
  0.00000000E+00  0.00000000E+00  0.00000000E+00
  0.00000000E+00  0.00000000E+00  0.00000000E+00
  0.00000000E+00  0.00000000E+00  0.00000000E+00
  0.00000000E+00  0.00000000E+00  0.00000000E+00
  0.00000000E+00  0.00000000E+00  0.00000000E+00
  0.00000000E+00  0.00000000E+00  0.00000000E+00
  0.00000000E+00  0.00000000E+00  0.00000000E+00
  0.00000000E+00  0.00000000E+00  0.00000000E+00
  0.00000000E+00  0.00000000E+00  0.00000000E+00
  0.00000000E+00  0.00000000E+00  0.00000000E+00
  0.00000000E+00  0.00000000E+00  0.00000000E+00
  0.00000000E+00  0.00000000E+00  0.00000000E+00
  0.00000000E+00  0.00000000E+00  0.00000000E+00
  0.00000000E+00  0.00000000E+00  0.00000000E+00
  0.00000000E+00  0.00000000E+00  0.00000000E+00
  0.00000000E+00  0.00000000E+00  0.00000000E+00
  0.00000000E+00  0.00000000E+00  0.00000000E+00
  0.00000000E+00  0.00000000E+00  0.00000000E+00
  0.00000000E+00  0.00000000E+00  0.00000000E+00
  0.00000000E+00  0.00000000E+00  0.00000000E+00
  0.00000000E+00  0.00000000E+00  0.00000000E+00
  0.00000000E+00  0.00000000E+00  0.00000000E+00
  0.00000000E+00  0.00000000E+00  0.00000000E+00
  0.00000000E+00  0.00000000E+00  0.00000000E+00
  0.00000000E+00  0.00000000E+00  0.00000000E+00
  0.00000000E+00  0.00000000E+00  0.00000000E+00
  0.00000000E+00  0.00000000E+00  0.00000000E+00
  0.00000000E+00  0.00000000E+00  0.00000000E+00
  0.00000000E+00  0.00000000E+00  0.00000000E+00
  0.00000000E+00  0.00000000E+00  0.00000000E+00
  0.00000000E+00  0.00000000E+00  0.00000000E+00
  0.00000000E+00  0.00000000E+00  0.00000000E+00
  0.00000000E+00  0.00000000E+00  0.00000000E+00
  0.00000000E+00  0.00000000E+00  0.00000000E+00
  0.00000000E+00  0.00000000E+00  0.00000000E+00
  0.00000000E+00  0.00000000E+00  0.00000000E+00
  0.00000000E+00  0.00000000E+00  0.00000000E+00
  0.00000000E+00  0.00000000E+00  0.00000000E+00
  0.00000000E+00  0.00000000E+00  0.00000000E+00
  0.00000000E+00  0.00000000E+00  0.00000000E+00
  0.00000000E+00  0.00000000E+00  0.00000000E+00
  0.00000000E+00  0.00000000E+00  0.00000000E+00
  0.00000000E+00  0.00000000E+00  0.00000000E+00
  0.00000000E+00  0.00000000E+00  0.00000000E+00
  0.00000000E+00  0.00000000E+00  0.00000000E+00
  0.00000000E+00  0.00000000E+00  0.00000000E+00
  0.00000000E+00  0.00000000E+00  0.00000000E+00
  0.00000000E+00  0.00000000E+00  0.00000000E+00
  0.00000000E+00  0.00000000E+00  0.00000000E+00
  0.00000000E+00  0.00000000E+00  0.00000000E+00
  0.00000000E+00  0.00000000E+00  0.00000000E+00
  0.00000000E+00  0.00000000E+00  0.00000000E+00
  0.00000000E+00  0.00000000E+00  0.00000000E+00
  0.00000000E+00  0.00000000E+00  0.00000000E+00
  0.00000000E+00  0.00000000E+00  0.00000000E+00
  0.00000000E+00  0.00000000E+00  0.00000000E+00
  0.00000000E+00  0.00000000E+00  0.00000000E+00
  0.00000000E+00  0.00000000E+00  0.00000000E+00
  0.00000000E+00  0.00000000E+00  0.00000000E+00
  0.00000000E+00  0.00000000E+00  0.00000000E+00
  0.00000000E+00  0.00000000E+00  0.00000000E+00
  0.00000000E+00  0.00000000E+00  0.00000000E+00
  0.00000000E+00  0.00000000E+00  0.00000000E+00
  0.00000000E+00  0.00000000E+00  0.00000000E+00
  0.00000000E+00  0.00000000E+00  0.00000000E+00
  0.00000000E+00  0.00000000E+00  0.00000000E+00
  0.00000000E+00  0.00000000E+00  0.00000000E+00
  0.00000000E+00  0.00000000E+00  0.00000000E+00
  0.00000000E+00  0.00000000E+00  0.00000000E+00
  0.00000000E+00  0.00000000E+00  0.00000000E+00
  0.00000000E+00  0.00000000E+00  0.00000000E+00
  0.00000000E+00  0.00000000E+00  0.00000000E+00
  0.00000000E+00  0.00000000E+00  0.00000000E+00
  0.00000000E+00  0.00000000E+00  0.00000000E+00
  0.00000000E+00  0.00000000E+00  0.00000000E+00
  0.00000000E+00  0.00000000E+00  0.00000000E+00
  0.00000000E+00  0.00000000E+00  0.00000000E+00
  0.00000000E+00  0.00000000E+00  0.00000000E+00
  0.00000000E+00  0.00000000E+00  0.00000000E+00
  0.00000000E+00  0.00000000E+00  0.00000000E+00
  0.00000000E+00  0.00000000E+00  0.00000000E+00
  0.00000000E+00  0.00000000E+00  0.00000000E+00
  0.00000000E+00  0.00000000E+00  0.00000000E+00
  0.00000000E+00  0.00000000E+00  0.00000000E+00
  0.00000000E+00  0.00000000E+00  0.00000000E+00
  0.00000000E+00  0.00000000E+00  0.00000000E+00
  0.00000000E+00  0.00000000E+00  0.00000000E+00
  0.00000000E+00  0.00000000E+00  0.00000000E+00
  0.00000000E+00  0.00000000E+00  0.00000000E+00
  0.00000000E+00  0.00000000E+00  0.00000000E+00
  0.00000000E+00  0.00000000E+00  0.00000000E+00
  0.00000000E+00  0.00000000E+00  0.00000000E+00
  0.00000000E+00  0.00000000E+00  0.00000000E+00
  0.00000000E+00  0.00000000E+00  0.00000000E+00
  0.00000000E+00  0.00000000E+00  0.00000000E+00
  0.00000000E+00  0.00000000E+00  0.00000000E+00
  0.00000000E+00  0.00000000E+00  0.00000000E+00
  0.00000000E+00  0.00000000E+00  0.00000000E+00
  0.00000000E+00  0.00000000E+00  0.00000000E+00
  0.00000000E+00  0.00000000E+00  0.00000000E+00
  0.00000000E+00  0.00000000E+00  0.00000000E+00
  0.00000000E+00  0.00000000E+00  0.00000000E+00
  0.00000000E+00  0.00000000E+00  0.00000000E+00
  0.00000000E+00  0.00000000E+00  0.00000000E+00
  0.00000000E+00  0.00000000E+00  0.00000000E+00
  0.00000000E+00  0.00000000E+00  0.00000000E+00
  0.00000000E+00  0.00000000E+00  0.00000000E+00
  0.00000000E+00  0.00000000E+00  0.00000000E+00
  0.00000000E+00  0.00000000E+00  0.00000000E+00
  0.00000000E+00  0.00000000E+00  0.00000000E+00
  0.00000000E+00  0.00000000E+00  0.00000000E+00
  0.00000000E+00  0.00000000E+00  0.00000000E+00
  0.00000000E+00  0.00000000E+00  0.00000000E+00
  0.00000000E+00  0.00000000E+00  0.00000000E+00
  0.00000000E+00  0.00000000E+00  0.00000000E+00
  0.00000000E+00  0.00000000E+00  0.00000000E+00
  0.00000000E+00  0.00000000E+00  0.00000000E+00
  0.00000000E+00  0.00000000E+00  0.00000000E+00
  0.00000000E+00  0.00000000E+00  0.00000000E+00
  0.00000000E+00  0.00000000E+00  0.00000000E+00
  0.00000000E+00  0.00000000E+00  0.00000000E+00
  0.00000000E+00  0.00000000E+00  0.00000000E+00
  0.00000000E+00  0.00000000E+00  0.00000000E+00
  0.00000000E+00  0.00000000E+00  0.00000000E+00
