KPOINTS from doped, with reciprocal_density = 45/Å⁻³
0
Gamma
6 6 1
