La4
1.0
   1.8855960000000000   -3.2659470000000002    0.0000000000000000
   1.8855960000000000    3.2659470000000002    0.0000000000000000
   0.0000000000000000    0.0000000000000000   12.0649320000000007
La
4
direct
   0.0000000000000000    0.0000000000000000    0.0000000000000000 La
   0.0000000000000000    0.0000000000000000    0.5000000000000000 La
   0.3333330000000000    0.6666670000000000    0.2500000000000000 La
   0.6666670000000000    0.3333330000000000    0.7500000000000000 La
