CSHIFT = 1e-06
EDIFF = 1e-05
ENCUT = 450
GGA = PS
ISMEAR = -5
KPAR = 4
LOPTICS = True
NCORE = 8
NEDOS = 2000
