Mg1 O1
1.0
   2.5543859699012765   -0.0000000040974164    1.4747759046241387
   0.8514623110199926    2.4082980155024343    1.4747759045928563
  -0.0000000161168452   -0.0000000044018612    2.9495498407116516
Mg O
1 1
direct
   0.0000000000000000   -0.0000000000000000   -0.0000000000000000 Mg
   0.5000000000000000    0.5000000000000000    0.5000000000000000 O
