10.0% N(Distort)=3 ~[0.5,0.5,0.5]       
   1.00000000000000     
    12.5998379999999983    0.0000000000000004    0.0000000000000004
     0.0000000000000004   12.5998379999999983   -0.0000000000000004
    -0.0000000000000004   -0.0000000000000004   12.5998379999999983
   Mg   O 
   109   107
Direct
  0.6663294045635535  0.0006985881748511 -0.0002750237038879
  0.8328809519322971  0.1670794496351319 -0.0002384311264710
  0.8328822632601303  0.0007532238802766  0.1661200033470406
  0.3321119241113266  0.0006257734725277 -0.0003408441906954
  0.4990888981126971  0.1666432556630305 -0.0003797564928374
  0.6662748626525844  0.3337009524603339  0.9988576885446763
  0.8333124882905097  0.5008805518190373 -0.0003795902946788
  0.4990964240724536  0.0005749618131378  0.1657166045509467
  0.6661718312871640  0.1659798090033265  0.1649895092193667
  0.8340357440651119  0.3338059721372192  0.1649663229211582
  0.6662368636654232 -0.0001716374248950  0.3327518216074680
  0.8340115296792641  0.1659754955431331  0.3328240665002460
  0.8332778667954441  0.0006062012442793  0.4998976411633299
 -0.0007051320605126  0.0006836774879197 -0.0002913350899535
  0.1655839098640359  0.1669429164132999 -0.0002151770177440
  0.3319930598161768  0.3331807478216218 -0.0012849717750650
  0.4990845958358331  0.5008973718004821  0.9954096495137554
  0.6667596647989861  0.6679648046449037 -0.0012325817397434
  0.8329811112350926  0.8344089950879877 -0.0001863307969252
  0.1655741606373839  0.0007669823797872  0.1659734559892273
  0.3320140150211097  0.1671001578408884  0.1661358664851681
  0.4988615190778205  0.3332356473352081  0.1628053186107610
  0.6667537743963310  0.5011015029957298  0.1628950471839528
  0.8328784596572161  0.6679586293578843  0.1661368887353937
  0.3319843802298788 -0.0002823890155658  0.3322204553208046
  0.4988505866747429  0.1637946040306871  0.3323005220194744
  0.6724264792448891  0.3276355660763048  0.3266959494022905
  0.8362341923858597  0.5011338116934568  0.3323004296158289
  0.4990443436532027  0.9964024766862040  0.4999327455097188
  0.6667342383062602  0.1638559512298981  0.5001585920787289
  0.8362307222736575  0.3332497198889479  0.5001544086232499
  0.6667356142593461 -0.0002465109391461  0.6669741212172882
  0.8328832323268679  0.1670699047067936  0.6669880472471955
  0.8329820240019824  0.0007693993537103  0.8334365951577627
 -0.0007230986488296  0.3336096225743428 -0.0003017553271767
  0.1646540075390984  0.5007308497115052 -0.0018513811381646
  0.3319216953580776  0.6680471799408233 -0.0021347292413130
  0.4992323609202666  0.8352967805901660 -0.0018102545039280
 -0.0007848217504718  0.1670886799652251  0.1661010723966347
  0.1650360169685860  0.3333720372779642  0.1658339214097181
  0.3259906497720894  0.5005333168468509  0.1584420923339076
  0.4994249923201210  0.6738428324771348  0.1585266404088961
  0.6665633107596624  0.8348839805710431  0.1658913714935037
 -0.0007464740591391  0.0007120482544326  0.3326316313032915
  0.1650314272135994  0.1668548677560277  0.3323709428089062
  0.3307241391139431  0.3337807814433602  0.3328009185459408
  0.4801790659981717  0.5193950874728913  0.3007753821381186
  0.6661793086303295  0.6690813828372297  0.3328580519466502
  0.8330915557864363  0.8349089890353948  0.3323989706608277
  0.1646030658995501 -0.0008368663851882  0.4997303588074603
  0.3259910619350641  0.1594464724904287  0.4995960294322171
  0.4802733346647851  0.3017878060351215  0.5183929646632559
  0.6985379315326536  0.5196704565484846  0.5187369796536124
  0.8406208370227914  0.6739962885421993  0.4996064672369267
  0.3318800516845093 -0.0011741429475442  0.6670788017176563
  0.4993975581815157  0.1595170948314371  0.6728890481827955
  0.6661884924830358  0.3337880768090676  0.6681265565825157
  0.8406289135994384  0.5005303947087688  0.6730081779251352
  0.4992434367239432 -0.0008097477219978  0.8343151613312013
  0.6665891484842044  0.1668652579504024  0.8338955048548735
  0.8331137536560388  0.3333580703273260  0.8338953443391787
 -0.0006669509269488  0.6679054513443365 -0.0003480801496378
  0.1656808202979305  0.8343152042195013 -0.0006622014930962
 -0.0006085998201605  0.5008992949576077  0.1656622290856103
  0.1650545760404186  0.6682055755822121  0.1652135534843760
  0.3317867716958896  0.8349009754386862  0.1652386259466879
  0.0001546749880236  0.3337283758765212  0.3327422532838442
  0.1645238272145502  0.5009680470258314  0.3315661724226116
  0.3284116578757607  0.6714982028270552  0.3323374691941821
  0.4990152807817896  0.8353406746370495  0.3316088461174190
  0.9993835177980049  0.1666573873086714  0.4999051407541755
  0.1645139038827321  0.3325707394519779  0.4999462747809210
  0.3289630690570243  0.5006286780024091  0.4996547876807074
  0.4993069093208859  0.6709286941728441  0.4996739479478119
  0.6673901732595470  0.8354176517476646  0.4999667649957272
  0.9993158215034461  0.0006284734679535  0.6669094599209977
  0.1650192855576222  0.1662057650792740  0.6671994933810342
  0.3284382707130237  0.3333015743604324  0.6704760526798518
  0.4993430090221640  0.5006082806644171  0.6699809544282060
  0.6666648201425343  0.6715348903063949  0.6705409668972971
  0.8337437566106514  0.8349556411724725  0.6672129172852804
  0.1656859134429002  0.0003304150993158  0.8333225389975141
  0.3317693373615484  0.1662222950057572  0.8339049507784213
  0.4990376956508548  0.3325600834621842  0.8343935371107037
  0.6674192608975352  0.5009318780376006  0.8344163238629133
  0.8337548807964988  0.6682055933929092  0.8339423032356580
  0.9991892569937852  0.8344222416391219  0.1659542012718590
  0.0002711983821692  0.6680256939449243  0.3322040941843615
  0.1650814467584281  0.8349004077715572  0.3323565392221304
  0.0036718857445827  0.5009466096031447  0.4999612990430539
  0.1660980722079574  0.6680746348293519  0.4996958779888313
  0.3319126347329292  0.8338825213224274  0.4996979126591714
  0.0002675774052508  0.3331913137828716  0.6670000527575652
  0.1661056218520589  0.5006854396622373  0.6670687243216178
  0.3327408809627388  0.6672175712254707  0.6662629409852009
  0.4992849586546091  0.8338747203793268  0.6670449328531635
 -0.0008127228182284  0.1669351858809195  0.8334182435810084
  0.1650871846398232  0.3333577543948883  0.8338952660720657
  0.3319326456744316  0.5006659513724159  0.8329088741673243
  0.4993044727192920  0.6680172494046620  0.8329149371784744
  0.6665715389090839  0.8348860198999521  0.8339094682147163
  0.0008107799138215  0.8353791932360790  0.4997399860633316
  0.0011945745965250  0.6681068438828196  0.6671065010846252
  0.1661306828841868  0.8338608361084665  0.6667030188501262
  0.0008161980925733  0.5007139949763388  0.8343390346529570
  0.1661474577216518  0.6676779609231187  0.8328817294118068
  0.3323164583266986  0.8338295500461974  0.8328698716212294
 -0.0003524554607820  0.8343110112039707  0.8333237367335592
  0.5568548179546424  0.4435312833169727  0.4424872581749777
  0.8320196093054266  0.1679466500846584  0.1669318988921652
 -0.0010233545767603  0.3341807993770868  0.1665448141014669
 -0.0010397083488617  0.1676013364951312  0.3331404910885164
  0.4993333201764498  0.1687392499978119  0.1677701640914558
  0.6650953555402218  0.3348894939531329  0.1664831124460887
  0.8313046611792589  0.5006361032281526  0.1677225921853847
 -0.0010880967252310  0.6674121804958597  0.1663337026871719
  0.6650840911259382  0.1674655569766700  0.3339183010611698
  0.8326073328885750  0.3348888231730498  0.3339039445034582
  0.0002564150376497  0.5007813764062533  0.3325045896304193
  0.8312926927076418  0.1687034882912450  0.4996331515276869
  0.0002358815047199  0.3335135928575480  0.4997678189077361
 -0.0010967927862665  0.1673376705650884  0.6663697887736906
  0.1659750171597751  0.1676085629184867  0.1665843798683004
  0.3334705143850941  0.3349180627273786  0.1667633997541567
  0.4984310246645015  0.5014892589277998  0.1553173214124136
  0.6650513719539292  0.6664730551788897  0.1668061473221384
  0.8323341345810410  0.8339930686733411  0.1666097943631559
 -0.0009559475773780  0.0009335820890147  0.1664498067977382
  0.3334426406952953  0.1677767384241489  0.3339426022181656
  0.4996440267857660  0.3405296205949844  0.3396348618116209
  0.6597563665958612  0.5002690098383175  0.3395069402352056
  0.8322561884851271  0.6665276374309855  0.3339676608553543
 -0.0009320568143703  0.8342014663697144  0.3329280708587864
  0.4984096462079655  0.1563116669075882  0.5005275211815471
  0.6596880851758430  0.3404480482920326  0.4993319371701072
  0.8438700241384414  0.5015561888255479  0.5006040062091845
  0.0018178767242313  0.6683680501134031  0.4996148112446763
  0.6650596904848139  0.1677899874011408  0.6654935595590469
  0.8322457980329004  0.3349046839878502  0.6655126602396469
  0.0018299743077526  0.5006085647809275  0.6673510860990423
  0.8323479736974970  0.1676033971388792  0.8329712209650922
 -0.0009187439993302  0.3339393404641696  0.8331570939563345
 -0.0009458020134371  0.1674572236384062 -0.0001015839321821
  0.1647564380754357  0.5007210159859966  0.1650142509893230
  0.3331838863860470  0.6667476122993932  0.1654933158995505
  0.4992420125746999  0.8351424546755178  0.1651020534293669
  0.6657838923360363  0.0010086624099770  0.1665747798051266
  0.1662070602944449  0.3340118289587206  0.3329747515081318
  0.3294785051495260  0.5018813313497029  0.3302002660786432
  0.4980564734683799  0.6701959593907998  0.3302390619451774
  0.6659189288953496  0.8336906893225488  0.3330172645309736
  0.8323602993899185  0.0009980372490762  0.3331500319190171
  0.1647530611459188  0.1660627390783011  0.4996998083582287
  0.3294933196855787  0.3312187291659942  0.5009157138624549
  0.6687752252440755  0.6703434753089941  0.5009575249194069
  0.8338885459411943  0.8352241014555761  0.4997304029064735
  0.9989905983905089  0.0009636815986353  0.4996783802335336
  0.3331538921426458  0.1664867594956276  0.6657478712793972
  0.4980433901635835  0.3311843619516693  0.6692543026546021
  0.6688360437576524  0.5019173164822507  0.6693992236783313
  0.8334961066699946  0.6667875159592097  0.6657801445074452
 -0.0003288858327932  0.8340772908926597  0.6663326902007367
  0.4992298924847766  0.1660794455227096  0.8341726330236469
  0.6659583873678182  0.3340148086586432  0.8326923106950235
  0.8339396251101615  0.5007270448471631  0.8342132177968605
 -0.0003111183581693  0.6673754436270795  0.8330307739318432
  0.6657995615627061  0.1675822949194674  0.0000011573930965
  0.8323963349192506  0.3341666783297368 -0.0000187258591952
 -0.0009762452501332  0.5007103857275131 -0.0000762017308646
  0.1658877241045840  0.8340899428095824  0.1660757783556663
  0.3325940858309079  0.0010710498852916  0.1663547923930528
  0.1656002582201609  0.6677733621662794  0.3324392212688477
  0.3322390686751992  0.8343269605375184  0.3324683887765310
  0.4992074040694013 -0.0002638426348187  0.3325351446566123
  0.1668777645766784  0.5002582926571902  0.4992157657893634
  0.3337134253589177  0.6662162883823421  0.4986773290866868
  0.4997145924090727  0.8330528630150935  0.4992132784838633
  0.6664216908818115 -0.0002066718988812  0.4997447363835880
  0.1656106689800469  0.3334825549031531  0.6667318751348861
  0.3337266325992372  0.4996909464289677  0.6652134269558184
  0.5002797941033298  0.6662060078839527  0.6652386073449195
  0.6664606951412411  0.8343583200755869  0.6667285153534090
  0.8325714430162784  0.0010609105758725  0.6663821290820239
  0.1658791639081766  0.1671103152680615  0.8330667735483340
  0.3322242266998228  0.3334806987707831  0.8333031914032427
  0.4997346792593825  0.5002165624349649  0.8320583912801095
  0.6664779138570917  0.6677443612122230  0.8333523182795118
  0.8328166702346409  0.8341010196920349  0.8330761046886027
 -0.0008017416799373  0.0007485420974717  0.8331048687192990
  0.3325880144973023  0.1673553955804798  0.0000567540052977
  0.4992216726571867  0.3335140914512992 -0.0012596875272640
  0.6664591695199891  0.5007500288176839 -0.0012363446991752
  0.8325986063723201  0.6674045715985819  0.0000576675430242
 -0.0007984955854633  0.8341443182487187 -0.0002695784929938
  0.1657888210638149  0.0008986522609216  0.3329289460346646
  0.1663146679095532  0.8336611339550051  0.4994197028706606
  0.3316472685662195 -0.0017926087207831  0.4995893235399358
  0.1670168092658993  0.6669950917948064  0.6659707143151107
  0.3329998011536682  0.8329805594832741  0.6659409936604721
  0.4993564946963596 -0.0017768774862301  0.6672863592773224
  0.1663357109969499  0.5004543790293702  0.8326356390560984
  0.3330158585584450  0.6669541637936267  0.8320004032336636
  0.4995070787689549  0.8336341787726314  0.8326178965827935
  0.6659744677345873  0.0009043244418245  0.8331636952989474
  0.1657995968915621  0.3339585099455202 -0.0001384465608018
  0.3316920648448224  0.5006003026201652 -0.0027981796261038
  0.4993703877499578  0.6682613168579097 -0.0027653604719206
  0.6659687146996816  0.8341741537561796 -0.0001098842786836
  0.8324921630051523  0.0009163729080180 -0.0000873795626081
  0.1658931209948788  0.0002913658115262  0.6663237962945207
  0.1661353205724198  0.8338640817424504  0.8328386053943423
  0.3326252185203863  0.0002905910634750  0.8330150513569391
  0.1659433094485499  0.6673570012745085 -0.0007246015181473
  0.3326351597373621  0.8340272150697516 -0.0007205644497051
  0.4992600419875199  0.0009461879513879 -0.0000478628312279
  0.1658582321120976  0.0007601549955658 -0.0002546034330899
 
  0.00000000E+00  0.00000000E+00  0.00000000E+00
  0.00000000E+00  0.00000000E+00  0.00000000E+00
  0.00000000E+00  0.00000000E+00  0.00000000E+00
  0.00000000E+00  0.00000000E+00  0.00000000E+00
  0.00000000E+00  0.00000000E+00  0.00000000E+00
  0.00000000E+00  0.00000000E+00  0.00000000E+00
  0.00000000E+00  0.00000000E+00  0.00000000E+00
  0.00000000E+00  0.00000000E+00  0.00000000E+00
  0.00000000E+00  0.00000000E+00  0.00000000E+00
  0.00000000E+00  0.00000000E+00  0.00000000E+00
  0.00000000E+00  0.00000000E+00  0.00000000E+00
  0.00000000E+00  0.00000000E+00  0.00000000E+00
  0.00000000E+00  0.00000000E+00  0.00000000E+00
  0.00000000E+00  0.00000000E+00  0.00000000E+00
  0.00000000E+00  0.00000000E+00  0.00000000E+00
  0.00000000E+00  0.00000000E+00  0.00000000E+00
  0.00000000E+00  0.00000000E+00  0.00000000E+00
  0.00000000E+00  0.00000000E+00  0.00000000E+00
  0.00000000E+00  0.00000000E+00  0.00000000E+00
  0.00000000E+00  0.00000000E+00  0.00000000E+00
  0.00000000E+00  0.00000000E+00  0.00000000E+00
  0.00000000E+00  0.00000000E+00  0.00000000E+00
  0.00000000E+00  0.00000000E+00  0.00000000E+00
  0.00000000E+00  0.00000000E+00  0.00000000E+00
  0.00000000E+00  0.00000000E+00  0.00000000E+00
  0.00000000E+00  0.00000000E+00  0.00000000E+00
  0.00000000E+00  0.00000000E+00  0.00000000E+00
  0.00000000E+00  0.00000000E+00  0.00000000E+00
  0.00000000E+00  0.00000000E+00  0.00000000E+00
  0.00000000E+00  0.00000000E+00  0.00000000E+00
  0.00000000E+00  0.00000000E+00  0.00000000E+00
  0.00000000E+00  0.00000000E+00  0.00000000E+00
  0.00000000E+00  0.00000000E+00  0.00000000E+00
  0.00000000E+00  0.00000000E+00  0.00000000E+00
  0.00000000E+00  0.00000000E+00  0.00000000E+00
  0.00000000E+00  0.00000000E+00  0.00000000E+00
  0.00000000E+00  0.00000000E+00  0.00000000E+00
  0.00000000E+00  0.00000000E+00  0.00000000E+00
  0.00000000E+00  0.00000000E+00  0.00000000E+00
  0.00000000E+00  0.00000000E+00  0.00000000E+00
  0.00000000E+00  0.00000000E+00  0.00000000E+00
  0.00000000E+00  0.00000000E+00  0.00000000E+00
  0.00000000E+00  0.00000000E+00  0.00000000E+00
  0.00000000E+00  0.00000000E+00  0.00000000E+00
  0.00000000E+00  0.00000000E+00  0.00000000E+00
  0.00000000E+00  0.00000000E+00  0.00000000E+00
  0.00000000E+00  0.00000000E+00  0.00000000E+00
  0.00000000E+00  0.00000000E+00  0.00000000E+00
  0.00000000E+00  0.00000000E+00  0.00000000E+00
  0.00000000E+00  0.00000000E+00  0.00000000E+00
  0.00000000E+00  0.00000000E+00  0.00000000E+00
  0.00000000E+00  0.00000000E+00  0.00000000E+00
  0.00000000E+00  0.00000000E+00  0.00000000E+00
  0.00000000E+00  0.00000000E+00  0.00000000E+00
  0.00000000E+00  0.00000000E+00  0.00000000E+00
  0.00000000E+00  0.00000000E+00  0.00000000E+00
  0.00000000E+00  0.00000000E+00  0.00000000E+00
  0.00000000E+00  0.00000000E+00  0.00000000E+00
  0.00000000E+00  0.00000000E+00  0.00000000E+00
  0.00000000E+00  0.00000000E+00  0.00000000E+00
  0.00000000E+00  0.00000000E+00  0.00000000E+00
  0.00000000E+00  0.00000000E+00  0.00000000E+00
  0.00000000E+00  0.00000000E+00  0.00000000E+00
  0.00000000E+00  0.00000000E+00  0.00000000E+00
  0.00000000E+00  0.00000000E+00  0.00000000E+00
  0.00000000E+00  0.00000000E+00  0.00000000E+00
  0.00000000E+00  0.00000000E+00  0.00000000E+00
  0.00000000E+00  0.00000000E+00  0.00000000E+00
  0.00000000E+00  0.00000000E+00  0.00000000E+00
  0.00000000E+00  0.00000000E+00  0.00000000E+00
  0.00000000E+00  0.00000000E+00  0.00000000E+00
  0.00000000E+00  0.00000000E+00  0.00000000E+00
  0.00000000E+00  0.00000000E+00  0.00000000E+00
  0.00000000E+00  0.00000000E+00  0.00000000E+00
  0.00000000E+00  0.00000000E+00  0.00000000E+00
  0.00000000E+00  0.00000000E+00  0.00000000E+00
  0.00000000E+00  0.00000000E+00  0.00000000E+00
  0.00000000E+00  0.00000000E+00  0.00000000E+00
  0.00000000E+00  0.00000000E+00  0.00000000E+00
  0.00000000E+00  0.00000000E+00  0.00000000E+00
  0.00000000E+00  0.00000000E+00  0.00000000E+00
  0.00000000E+00  0.00000000E+00  0.00000000E+00
  0.00000000E+00  0.00000000E+00  0.00000000E+00
  0.00000000E+00  0.00000000E+00  0.00000000E+00
  0.00000000E+00  0.00000000E+00  0.00000000E+00
  0.00000000E+00  0.00000000E+00  0.00000000E+00
  0.00000000E+00  0.00000000E+00  0.00000000E+00
  0.00000000E+00  0.00000000E+00  0.00000000E+00
  0.00000000E+00  0.00000000E+00  0.00000000E+00
  0.00000000E+00  0.00000000E+00  0.00000000E+00
  0.00000000E+00  0.00000000E+00  0.00000000E+00
  0.00000000E+00  0.00000000E+00  0.00000000E+00
  0.00000000E+00  0.00000000E+00  0.00000000E+00
  0.00000000E+00  0.00000000E+00  0.00000000E+00
  0.00000000E+00  0.00000000E+00  0.00000000E+00
  0.00000000E+00  0.00000000E+00  0.00000000E+00
  0.00000000E+00  0.00000000E+00  0.00000000E+00
  0.00000000E+00  0.00000000E+00  0.00000000E+00
  0.00000000E+00  0.00000000E+00  0.00000000E+00
  0.00000000E+00  0.00000000E+00  0.00000000E+00
  0.00000000E+00  0.00000000E+00  0.00000000E+00
  0.00000000E+00  0.00000000E+00  0.00000000E+00
  0.00000000E+00  0.00000000E+00  0.00000000E+00
  0.00000000E+00  0.00000000E+00  0.00000000E+00
  0.00000000E+00  0.00000000E+00  0.00000000E+00
  0.00000000E+00  0.00000000E+00  0.00000000E+00
  0.00000000E+00  0.00000000E+00  0.00000000E+00
  0.00000000E+00  0.00000000E+00  0.00000000E+00
  0.00000000E+00  0.00000000E+00  0.00000000E+00
  0.00000000E+00  0.00000000E+00  0.00000000E+00
  0.00000000E+00  0.00000000E+00  0.00000000E+00
  0.00000000E+00  0.00000000E+00  0.00000000E+00
  0.00000000E+00  0.00000000E+00  0.00000000E+00
  0.00000000E+00  0.00000000E+00  0.00000000E+00
  0.00000000E+00  0.00000000E+00  0.00000000E+00
  0.00000000E+00  0.00000000E+00  0.00000000E+00
  0.00000000E+00  0.00000000E+00  0.00000000E+00
  0.00000000E+00  0.00000000E+00  0.00000000E+00
  0.00000000E+00  0.00000000E+00  0.00000000E+00
  0.00000000E+00  0.00000000E+00  0.00000000E+00
  0.00000000E+00  0.00000000E+00  0.00000000E+00
  0.00000000E+00  0.00000000E+00  0.00000000E+00
  0.00000000E+00  0.00000000E+00  0.00000000E+00
  0.00000000E+00  0.00000000E+00  0.00000000E+00
  0.00000000E+00  0.00000000E+00  0.00000000E+00
  0.00000000E+00  0.00000000E+00  0.00000000E+00
  0.00000000E+00  0.00000000E+00  0.00000000E+00
  0.00000000E+00  0.00000000E+00  0.00000000E+00
  0.00000000E+00  0.00000000E+00  0.00000000E+00
  0.00000000E+00  0.00000000E+00  0.00000000E+00
  0.00000000E+00  0.00000000E+00  0.00000000E+00
  0.00000000E+00  0.00000000E+00  0.00000000E+00
  0.00000000E+00  0.00000000E+00  0.00000000E+00
  0.00000000E+00  0.00000000E+00  0.00000000E+00
  0.00000000E+00  0.00000000E+00  0.00000000E+00
  0.00000000E+00  0.00000000E+00  0.00000000E+00
  0.00000000E+00  0.00000000E+00  0.00000000E+00
  0.00000000E+00  0.00000000E+00  0.00000000E+00
  0.00000000E+00  0.00000000E+00  0.00000000E+00
  0.00000000E+00  0.00000000E+00  0.00000000E+00
  0.00000000E+00  0.00000000E+00  0.00000000E+00
  0.00000000E+00  0.00000000E+00  0.00000000E+00
  0.00000000E+00  0.00000000E+00  0.00000000E+00
  0.00000000E+00  0.00000000E+00  0.00000000E+00
  0.00000000E+00  0.00000000E+00  0.00000000E+00
  0.00000000E+00  0.00000000E+00  0.00000000E+00
  0.00000000E+00  0.00000000E+00  0.00000000E+00
  0.00000000E+00  0.00000000E+00  0.00000000E+00
  0.00000000E+00  0.00000000E+00  0.00000000E+00
  0.00000000E+00  0.00000000E+00  0.00000000E+00
  0.00000000E+00  0.00000000E+00  0.00000000E+00
  0.00000000E+00  0.00000000E+00  0.00000000E+00
  0.00000000E+00  0.00000000E+00  0.00000000E+00
  0.00000000E+00  0.00000000E+00  0.00000000E+00
  0.00000000E+00  0.00000000E+00  0.00000000E+00
  0.00000000E+00  0.00000000E+00  0.00000000E+00
  0.00000000E+00  0.00000000E+00  0.00000000E+00
  0.00000000E+00  0.00000000E+00  0.00000000E+00
  0.00000000E+00  0.00000000E+00  0.00000000E+00
  0.00000000E+00  0.00000000E+00  0.00000000E+00
  0.00000000E+00  0.00000000E+00  0.00000000E+00
  0.00000000E+00  0.00000000E+00  0.00000000E+00
  0.00000000E+00  0.00000000E+00  0.00000000E+00
  0.00000000E+00  0.00000000E+00  0.00000000E+00
  0.00000000E+00  0.00000000E+00  0.00000000E+00
  0.00000000E+00  0.00000000E+00  0.00000000E+00
  0.00000000E+00  0.00000000E+00  0.00000000E+00
  0.00000000E+00  0.00000000E+00  0.00000000E+00
  0.00000000E+00  0.00000000E+00  0.00000000E+00
  0.00000000E+00  0.00000000E+00  0.00000000E+00
  0.00000000E+00  0.00000000E+00  0.00000000E+00
  0.00000000E+00  0.00000000E+00  0.00000000E+00
  0.00000000E+00  0.00000000E+00  0.00000000E+00
  0.00000000E+00  0.00000000E+00  0.00000000E+00
  0.00000000E+00  0.00000000E+00  0.00000000E+00
  0.00000000E+00  0.00000000E+00  0.00000000E+00
  0.00000000E+00  0.00000000E+00  0.00000000E+00
  0.00000000E+00  0.00000000E+00  0.00000000E+00
  0.00000000E+00  0.00000000E+00  0.00000000E+00
  0.00000000E+00  0.00000000E+00  0.00000000E+00
  0.00000000E+00  0.00000000E+00  0.00000000E+00
  0.00000000E+00  0.00000000E+00  0.00000000E+00
  0.00000000E+00  0.00000000E+00  0.00000000E+00
  0.00000000E+00  0.00000000E+00  0.00000000E+00
  0.00000000E+00  0.00000000E+00  0.00000000E+00
  0.00000000E+00  0.00000000E+00  0.00000000E+00
  0.00000000E+00  0.00000000E+00  0.00000000E+00
  0.00000000E+00  0.00000000E+00  0.00000000E+00
  0.00000000E+00  0.00000000E+00  0.00000000E+00
  0.00000000E+00  0.00000000E+00  0.00000000E+00
  0.00000000E+00  0.00000000E+00  0.00000000E+00
  0.00000000E+00  0.00000000E+00  0.00000000E+00
  0.00000000E+00  0.00000000E+00  0.00000000E+00
  0.00000000E+00  0.00000000E+00  0.00000000E+00
  0.00000000E+00  0.00000000E+00  0.00000000E+00
  0.00000000E+00  0.00000000E+00  0.00000000E+00
  0.00000000E+00  0.00000000E+00  0.00000000E+00
  0.00000000E+00  0.00000000E+00  0.00000000E+00
  0.00000000E+00  0.00000000E+00  0.00000000E+00
  0.00000000E+00  0.00000000E+00  0.00000000E+00
  0.00000000E+00  0.00000000E+00  0.00000000E+00
  0.00000000E+00  0.00000000E+00  0.00000000E+00
  0.00000000E+00  0.00000000E+00  0.00000000E+00
  0.00000000E+00  0.00000000E+00  0.00000000E+00
  0.00000000E+00  0.00000000E+00  0.00000000E+00
  0.00000000E+00  0.00000000E+00  0.00000000E+00
  0.00000000E+00  0.00000000E+00  0.00000000E+00
  0.00000000E+00  0.00000000E+00  0.00000000E+00
  0.00000000E+00  0.00000000E+00  0.00000000E+00
  0.00000000E+00  0.00000000E+00  0.00000000E+00
  0.00000000E+00  0.00000000E+00  0.00000000E+00
  0.00000000E+00  0.00000000E+00  0.00000000E+00
  0.00000000E+00  0.00000000E+00  0.00000000E+00
  0.00000000E+00  0.00000000E+00  0.00000000E+00
  0.00000000E+00  0.00000000E+00  0.00000000E+00
  0.00000000E+00  0.00000000E+00  0.00000000E+00
