Cd_i_m4_-1 ~[0.1875,0.1875,0.1875]
1.0
  13.0813039999999976    0.0000000000000000    0.0000000000000008
   0.0000000000000000   13.0813039999999976    0.0000000000000008
   0.0000000000000000    0.0000000000000000   13.0813039999999976
Cd Te
33 32
direct
   0.1875000000000001    0.1875000000000001    0.1875000000000002 Cd
   0.5000000000000000    0.0000000000000000    0.0000000000000000 Cd
   0.7500000000000001    0.2500000000000000    0.0000000000000000 Cd
   0.7500000000000001    0.0000000000000000    0.2500000000000000 Cd
   0.0000000000000000    0.0000000000000000    0.0000000000000000 Cd
   0.2500000000000000    0.2500000000000000    0.0000000000000000 Cd
   0.5000000000000000    0.5000000000000000    0.0000000000000000 Cd
   0.7500000000000001    0.7500000000000001    0.0000000000000000 Cd
   0.2500000000000000    0.0000000000000000    0.2500000000000000 Cd
   0.5000000000000000    0.2500000000000000    0.2500000000000000 Cd
   0.7500000000000001    0.5000000000000000    0.2500000000000000 Cd
   0.5000000000000000    0.0000000000000000    0.5000000000000000 Cd
   0.7500000000000001    0.2500000000000000    0.5000000000000000 Cd
   0.7500000000000001    0.0000000000000000    0.7500000000000000 Cd
   0.0000000000000000    0.5000000000000000    0.0000000000000000 Cd
   0.2500000000000000    0.7500000000000001    0.0000000000000000 Cd
   0.0000000000000000    0.2500000000000000    0.2500000000000000 Cd
   0.2500000000000000    0.5000000000000000    0.2500000000000000 Cd
   0.5000000000000000    0.7500000000000001    0.2500000000000000 Cd
   0.0000000000000000    0.0000000000000000    0.5000000000000000 Cd
   0.2500000000000000    0.2500000000000000    0.5000000000000000 Cd
   0.5000000000000000    0.5000000000000000    0.5000000000000000 Cd
   0.7500000000000001    0.7500000000000001    0.5000000000000000 Cd
   0.2500000000000000    0.0000000000000000    0.7500000000000000 Cd
   0.5000000000000000    0.2500000000000000    0.7500000000000000 Cd
   0.7500000000000001    0.5000000000000000    0.7500000000000000 Cd
   0.0000000000000000    0.7500000000000001    0.2500000000000000 Cd
   0.0000000000000000    0.5000000000000000    0.5000000000000000 Cd
   0.2500000000000000    0.7500000000000001    0.5000000000000000 Cd
   0.0000000000000000    0.2500000000000000    0.7500000000000000 Cd
   0.2500000000000000    0.5000000000000000    0.7500000000000000 Cd
   0.5000000000000000    0.7500000000000001    0.7500000000000000 Cd
   0.0000000000000000    0.7500000000000001    0.7500000000000000 Cd
   0.8750000000000000    0.3750000000000001    0.3750000000000000 Te
   0.1250000000000000    0.6250000000000000    0.3750000000000001 Te
   0.1250000000000000    0.3750000000000001    0.6250000000000000 Te
   0.3749999999999999    0.3750000000000001    0.3750000000000001 Te
   0.6250000000000000    0.6250000000000000    0.3750000000000000 Te
   0.8750000000000000    0.8750000000000000    0.3750000000000001 Te
   0.1250000000000000    0.1250000000000000    0.3750000000000000 Te
   0.6250000000000000    0.3750000000000001    0.6250000000000001 Te
   0.8750000000000000    0.6250000000000000    0.6250000000000000 Te
   0.1250000000000000    0.8750000000000000    0.6250000000000000 Te
   0.8750000000000000    0.3750000000000001    0.8750000000000000 Te
   0.1250000000000000    0.6250000000000000    0.8750000000000001 Te
   0.1250000000000000    0.3750000000000001    0.1250000000000000 Te
   0.3749999999999999    0.8750000000000000    0.3750000000000000 Te
   0.6250000000000000    0.1250000000000000    0.3750000000000001 Te
   0.3749999999999999    0.6250000000000000    0.6250000000000001 Te
   0.6250000000000000    0.8750000000000000    0.6250000000000000 Te
   0.8750000000000000    0.1250000000000000    0.6250000000000000 Te
   0.3749999999999999    0.3750000000000001    0.8750000000000001 Te
   0.6250000000000000    0.6250000000000000    0.8750000000000000 Te
   0.8750000000000000    0.8750000000000000    0.8750000000000001 Te
   0.1250000000000000    0.1250000000000000    0.8750000000000001 Te
   0.6250000000000000    0.3750000000000001    0.1250000000000000 Te
   0.8750000000000000    0.6250000000000000    0.1250000000000000 Te
   0.1250000000000000    0.8750000000000000    0.1250000000000000 Te
   0.3749999999999999    0.1250000000000000    0.6250000000000000 Te
   0.3749999999999999    0.8750000000000000    0.8750000000000000 Te
   0.6250000000000000    0.1250000000000000    0.8750000000000001 Te
   0.3749999999999999    0.6250000000000000    0.1250000000000000 Te
   0.6250000000000000    0.8750000000000000    0.1250000000000000 Te
   0.8750000000000000    0.1250000000000000    0.1250000000000000 Te
   0.3749999999999999    0.1250000000000000    0.1250000000000000 Te
