KPOINTS from doped, with reciprocal_density = 500/Å⁻³
0
Gamma
14 14 14
