Int_Cd_3[0.75 0.25 0.75]_KV=-dNELECT=0
1.0
13.086768 0.000000 0.000000
0.000000 13.086768 0.000000
0.000000 0.000000 13.086768
Cd Te
33 32
direct
0.000000 0.000000 0.000000 Cd
0.000000 0.000000 0.500000 Cd
0.000000 0.500000 0.000000 Cd
0.000000 0.500000 0.500000 Cd
0.500000 0.000000 0.000000 Cd
0.500000 0.000000 0.500000 Cd
0.500000 0.500000 0.000000 Cd
0.500000 0.500000 0.500000 Cd
0.000000 0.250000 0.250000 Cd
0.000000 0.250000 0.750000 Cd
0.000000 0.750000 0.250000 Cd
0.000000 0.750000 0.750000 Cd
0.500000 0.250000 0.250000 Cd
0.500000 0.250000 0.750000 Cd
0.500000 0.750000 0.250000 Cd
0.500000 0.750000 0.750000 Cd
0.250000 0.000000 0.250000 Cd
0.250000 0.000000 0.750000 Cd
0.250000 0.500000 0.250000 Cd
0.250000 0.500000 0.750000 Cd
0.750000 0.000000 0.250000 Cd
0.750000 0.000000 0.750000 Cd
0.750000 0.500000 0.250000 Cd
0.750000 0.500000 0.750000 Cd
0.250000 0.250000 0.000000 Cd
0.250000 0.250000 0.500000 Cd
0.250000 0.750000 0.000000 Cd
0.250000 0.750000 0.500000 Cd
0.750000 0.250000 0.000000 Cd
0.750000 0.250000 0.500000 Cd
0.750000 0.750000 0.000000 Cd
0.750000 0.750000 0.500000 Cd
0.750000 0.250000 0.750000 Cd
0.125000 0.125000 0.375000 Te
0.125000 0.125000 0.875000 Te
0.125000 0.625000 0.375000 Te
0.125000 0.625000 0.875000 Te
0.625000 0.125000 0.375000 Te
0.625000 0.125000 0.875000 Te
0.625000 0.625000 0.375000 Te
0.625000 0.625000 0.875000 Te
0.125000 0.375000 0.125000 Te
0.125000 0.375000 0.625000 Te
0.125000 0.875000 0.125000 Te
0.125000 0.875000 0.625000 Te
0.625000 0.375000 0.125000 Te
0.625000 0.375000 0.625000 Te
0.625000 0.875000 0.125000 Te
0.625000 0.875000 0.625000 Te
0.375000 0.125000 0.125000 Te
0.375000 0.125000 0.625000 Te
0.375000 0.625000 0.125000 Te
0.375000 0.625000 0.625000 Te
0.875000 0.125000 0.125000 Te
0.875000 0.125000 0.625000 Te
0.875000 0.625000 0.125000 Te
0.875000 0.625000 0.625000 Te
0.375000 0.375000 0.375000 Te
0.375000 0.375000 0.875000 Te
0.375000 0.875000 0.375000 Te
0.375000 0.875000 0.875000 Te
0.875000 0.375000 0.375000 Te
0.875000 0.375000 0.875000 Te
0.875000 0.875000 0.375000 Te
0.875000 0.875000 0.875000 Te
