0.0% N(Distort)=4 ~[0.5,0.5,0.5]        
   1.00000000000000     
    12.5998379999999983    0.0000000000000004    0.0000000000000004
     0.0000000000000004   12.5998379999999983   -0.0000000000000004
    -0.0000000000000004   -0.0000000000000004   12.5998379999999983
   Mg   O 
   109   107
Direct
  0.6668229864128374 -0.0005447887309281  0.0002576528872723
  0.8334692968521404  0.1657547141748907  0.0002730616438996
  0.8332921631115123 -0.0006151043382974  0.1666411536409365
  0.3325480271089510 -0.0004996574372953  0.0001455004118573
  0.4997041595127347  0.1648242230336257 -0.0013982978708277
  0.6672045883017029  0.3321564151283898  0.9991516985909591
  0.8337315562480061  0.4992492308790117  0.0000482622038353
  0.4995046718489787 -0.0004262659641259  0.1661974549639345
  0.6670338641741466  0.1652766603630312  0.1663840496263646
  0.8332603512074502  0.3321706492432143  0.1666096334380273
  0.6666218484933736  0.0003369919441730  0.3332872878940279
  0.8334987512153533  0.1652972651171447  0.3328830758154805
  0.8336991595619017 -0.0003930543248134  0.5004178749757701
 -0.0002867673453050 -0.0005173086393431  0.0002360944432528
  0.1660938481739590  0.1658624234133883 -0.0002068661375086
  0.3323276024706399  0.3320684230292154 -0.0017498799995839
  0.4994574994055489  0.4992074722664646  0.9956800817346672
  0.6666763165261939  0.6664067379351425  0.9993242720097969
  0.8332865332262297  0.8330552792167368  0.0002884970748558
  0.1660119455221088 -0.0006517252007763  0.1664698886648893
  0.3321799083842649  0.1652035121747450  0.1656824827028567
  0.4998200937934297  0.3261365013905648  0.1588188250539195
  0.6671055204737343  0.4989894321993853  0.1631842440994332
  0.8343288963427175  0.6663110897845221  0.1655573291889020
  0.3324109398938122  0.0004497177477261  0.3327344558908239
  0.4994027837024423  0.1647939145473484  0.3320885103115467
  0.6665715804076139  0.3310383591756259  0.3333022042202751
  0.8366233432056355  0.4990217098012641  0.3327788254185226
  0.4994444531092569  0.0039880718379411  0.5004572789669695
  0.6677778380184106  0.1648836074125768  0.5004453752538885
  0.8408852090570365  0.3263208153660881  0.5000715604880265
  0.6671913180684913  0.0005200562597981  0.6674897422993664
  0.8341908028086482  0.1652839541634802  0.6676964219041002
  0.8334826534162225 -0.0006019803491266  0.8339142319847650
 -0.0002384012405623  0.3322772435974051  0.0001291773518980
  0.1650810888725872  0.4994283306855876 -0.0013872767008810
  0.3324695925474961  0.6669320631926376 -0.0007713045806617
  0.4995639947981707  0.8334866679729701  0.0001110436265053
 -0.0003769374990170  0.1657245827815205  0.1664699024400136
  0.1654680704869613  0.3319183010206699  0.1656721391442069
  0.3265411799560700  0.4995534242000758  0.1589011777831675
  0.4992785531234662  0.6668469820588621  0.1633001749124036
  0.6665614291511098  0.8341191710105329  0.1655993062187368
 -0.0003241843858284 -0.0005726051626848  0.3331299530043630
  0.1654947994541097  0.1652498294229065  0.3328554227225686
  0.3289327658345892  0.3286433554820756  0.3327481156654661
  0.4811723693006589  0.4805074816274392  0.3008189162301701
  0.6724611566708287  0.6723304325138234  0.3274070488765056
  0.8343283012409513  0.8341177140599146  0.3333594251784304
  0.1650885436565403  0.0010405318678771  0.5002187174703540
  0.3323698304100142  0.1663824738742567  0.5001700810611630
  0.4997167436447916  0.3294788168558164  0.5001524591930604
  0.6988104236782191  0.4809159155474536  0.5186754489446146
  0.8365993487845877  0.6669066803311394  0.5006408889231674
  0.3323379726503566  0.0014258856676656  0.6675856977459357
  0.4997271887417953  0.1664000253390106  0.6675015012163844
  0.6671140856939139  0.3287715359869059  0.6708825360362211
  0.8409215001488672  0.4995901427122149  0.6733015458081293
  0.4997471728516605  0.0010648091155580  0.8348380778191373
  0.6670779364652485  0.1653123353255171  0.8343653162004949
  0.8342237354155123  0.3319677115111785  0.8343946976939594
 -0.0002936489918376  0.6665580139732676  0.0002043572303733
  0.1660154145588096  0.8331851207742176  0.0002918364036067
 -0.0001890519001661  0.4992511696123373  0.1661924912184042
  0.1655453323574216  0.6667294202194127  0.1663775135980848
  0.3324483505234208  0.8330241753815396  0.1666298364253467
  0.0006703762877396  0.3321806802308790  0.3327157767357345
  0.1651494266721690  0.4991732493941949  0.3320910600523286
  0.3314056343973467  0.6663086593583816  0.3333133017029032
  0.4992264894867073  0.8363536929637320  0.3328209638987934
  0.0012188822352028  0.1648741476774771  0.5002064457160396
  0.1665867299912179  0.3321492341674671  0.5001670293416404
  0.3297563183261367  0.4994608193529491  0.5001625944441822
  0.4810798893293993  0.6988908106613084  0.5191304778882724
  0.6670846848305546  0.8364554659719474  0.5006687207481957
 -0.0002411038598840 -0.0004573097852745  0.6673828654999246
  0.1665374545406279  0.1663385996462851  0.6671661741837365
  0.3331676003519411  0.3329332824885120  0.6667329861114262
  0.4997195806942189  0.4994841491578906  0.6701769616343712
  0.6666029803666764  0.6663726259048859  0.6686267300708331
  0.8332770941601660  0.8330657775976326  0.6674814326090568
  0.1661230861473033 -0.0001335658652080  0.8338259026063927
  0.3327483140709283  0.1663346155810131  0.8333289650239262
  0.4997306694270660  0.3321747358119971  0.8332660665935013
  0.6678083762570998  0.4991802867221867  0.8347557571673264
  0.8335480367546265  0.6667718692872131  0.8343734815737442
 -0.0003514545447268  0.8330317869989455  0.1666357053588955
  0.0005813947315120  0.6663926975678277  0.3332424142093347
  0.1655676374333472  0.8332688775235692  0.3329035870138496
  0.0041503718367600  0.4992497559752160  0.5004006433069732
  0.1651487911906099  0.6675552923129254  0.5004382687648419
  0.3265253678637757  0.8407987184160800  0.5000832984648435
  0.0015867356738327  0.3321120699296026  0.6675374422675674
  0.1666060628693802  0.4994918844176291  0.6674738634156122
  0.3289703733839587  0.6668681529987676  0.6709718727312695
  0.4998531842511038  0.8408744399684298  0.6734882396847508
  0.0001023559505273  0.1659091230796368  0.8337986809754901
  0.1665738557536031  0.3325059034412863  0.8332895286754542
  0.3324017128080926  0.4995000270473289  0.8332879869890818
  0.4994923753218860  0.6675696304218793  0.8348480264682397
  0.6670424405925712  0.8333099649372389  0.8343920795139836
 -0.0001683151894197  0.8334803405182751  0.5003870465186494
  0.0006944078946150  0.6669513938413804  0.6674367341669752
  0.1655111335912192  0.8339828803998974  0.6677146818423614
  0.0012633886711689  0.4994702931778700  0.8347701260005344
  0.1655643164838672  0.6668303800509103  0.8343556689181166
  0.3322373249042501  0.8339648721349212  0.8344290087538357
 -0.0003709099677054  0.8332089966417527  0.8339329060465023
  0.5560249142901450  0.5562951914572527  0.4434524593005209
  0.8328403949958876  0.1661526072962849  0.1670754426699601
 -0.0006271229003319  0.3327424407308737  0.1668209408007618
 -0.0004828347582875  0.1659897635928606  0.3334681672831218
  0.4996507161972227  0.1649663371123703  0.1655523273581225
  0.6654414509322036  0.3335743643130733  0.1672012342636459
  0.8316471068854090  0.4994421805105043  0.1682329315077147
 -0.0005818294838154  0.6659505274209627  0.1670757225680249
  0.6663367103628718  0.1665293007675952  0.3335559765793719
  0.8326168049564791  0.3336160333762148  0.3344310504911630
  0.0007793975842872  0.4993462338746752  0.3330191887934529
  0.8342744151816923  0.1650552438334172  0.5002516551211437
  0.0022431638089078  0.3318400950616613  0.5001004395875042
  0.0001611812185050  0.1661550844769508  0.6668128360898752
  0.1662993301173316  0.1660448774790898  0.1665513662221752
  0.3335665922622485  0.3332926544895747  0.1659000403576718
  0.4987999690207129  0.4984675677652196  0.1553508829464135
  0.6654459294271072  0.6651802836314896  0.1669744981242321
  0.8324590993369857  0.8322215723996341  0.1674567382137778
 -0.0004926239649475 -0.0007721633895024  0.1669647898597104
  0.3325941399166402  0.1658231375764209  0.3329794734251958
  0.4983855414205911  0.3296869099779577  0.3307611573712418
  0.6594197926344713  0.4996783914861427  0.3402836728198950
  0.8328958396262238  0.6651921126968677  0.3344662305642806
 -0.0005614541963134  0.8325596074949683  0.3336972739232714
  0.5001106313570226  0.1672227583136341  0.4997758098302538
  0.6690548807958295  0.3299094239482734  0.5014683511004050
  0.8443416334795973  0.4985887805218160  0.5010785632287931
  0.0007602656247334  0.6666415976083160  0.5002574947540398
  0.6669015384189886  0.1659020842562744  0.6672344691745681
  0.8339329987278313  0.3333588588073879  0.6663102456111998
  0.0023078451682320  0.4995485078846775  0.6677867200431584
  0.8333520485080856  0.1661064690002035  0.8335562746512857
  0.0001904791171298  0.3328666851348835  0.8334984496447347
 -0.0003045480142309  0.1660600965615635  0.0002024776733158
  0.1652670196039663  0.4993792000555321  0.1655835937955213
  0.3338752339891941  0.6651731951309398  0.1672113193561832
  0.4997388483375707  0.8314442689543877  0.1682405057885604
  0.6662208940769111 -0.0007961439038759  0.1670971516354019
  0.1660959771979696  0.3323869470775238  0.3329999302899920
  0.3302524124608717  0.4981161198220773  0.3307381493176899
  0.4999157524350966  0.6595877947141284  0.3401554237899762
  0.6654325644338299  0.8327291763675568  0.3344853578562079
  0.8328174750590446 -0.0008021348906185  0.3337079506708096
  0.1667920298757862  0.1666086400858735  0.4999485439624419
  0.3341343223972404  0.3338657721044596  0.4992044855702596
  0.6594702724609640  0.6594677920108745  0.4999490641872349
  0.8316518113079245  0.8314555975897797  0.5001893043528252
  0.9994798481513477 -0.0007435847089771  0.5002113835422972
  0.3334189626962840  0.1672300714587641  0.6664658501838795
  0.5006657517799855  0.3339098779727196  0.6657592078295983
  0.6690796392652506  0.4981955324596513  0.6697031659038806
  0.8326466381839848  0.6652239077905858  0.6660208792398918
 -0.0006079264984921  0.8328428275529363  0.6668977493637064
  0.4999827541068622  0.1666216839507642  0.8330737868387332
  0.6669129205069035  0.3323985026736138  0.8337508141943331
  0.8343177454636783  0.4994137526903178  0.8345886206771078
 -0.0004150251431981  0.6662006317128222  0.8336440536981033
  0.6664700548282101  0.1659874089333864  0.0003340786652418
  0.8330982846806377  0.3327639172975309  0.0004992711904378
 -0.0005129773544905  0.4994598080799462  0.0003989868084792
  0.1664243811945335  0.8325197375385509  0.1670942771711299
  0.3330241485529988 -0.0008976485022456  0.1668257583268360
  0.1667829444571047  0.6660796635448260  0.3335546097291866
  0.3338233920022246  0.8324114517483308  0.3344497797225346
  0.4995894836152158  0.0005104200820529  0.3330433380109968
  0.1675008464291849  0.4998848864386310  0.4997424722756770
  0.3301984600560531  0.6688590951852142  0.5015063067107789
  0.4987437253575269  0.8443044942724688  0.5012102188827275
  0.6668651634147957  0.0005433777577690  0.5003023751114679
  0.1674675708000925  0.3331918579135140  0.6664260334576366
  0.3341307418448727  0.5004306671587818  0.6657773000848812
  0.4984104664442933  0.6688843998336165  0.6699208954689018
  0.6654576977007123  0.8324589066181857  0.6660868641017849
  0.8330880834539116 -0.0008457290375323  0.6669010117854384
  0.1665965833409270  0.1663811997330638  0.8333183732904303
  0.3334376912250183  0.3331918124009148  0.8323905286232570
  0.5001353113523668  0.4998735527175230  0.8324210136383435
  0.6663895826598486  0.6661132974037550  0.8331714230129488
  0.8328314425426854  0.8325721164696606  0.8334989608685525
 -0.0002788260712446 -0.0005170634718114  0.8335946063388492
  0.3330728693391993  0.1661147408325889 -0.0003032338122656
  0.4997736975881540  0.3317842644095909 -0.0024648664709443
  0.6668969728321484  0.4993285572429709 -0.0009209278168561
  0.8328400981301847  0.6659570467979584  0.0004770267941145
 -0.0004892751534377  0.8327315150953513  0.0004183501016683
  0.1662013301230537 -0.0007216496557665  0.3334600395591574
  0.1652670022641433  0.8340758664658738  0.5002593060131038
  0.3320118395487586  0.0020904572516220  0.5001332259819276
  0.1661336646347686  0.6666794256225284  0.6672108520183949
  0.3336104245104707  0.8337237733530753  0.6663473302705437
  0.4997863802458997  0.0021224825466433  0.6678970668731968
  0.1668274925083706  0.4997396147839631  0.8330261788655881
  0.3326831140836428  0.6666756438140269  0.8338005283013017
  0.4997099954642337  0.8341154898683214  0.8346923467631755
  0.6664967549925580 -0.0006554320380493  0.8336840375375362
  0.1663700202013607  0.3328301326623526 -0.0003096289727311
  0.3320425770699026  0.4995077786781033  0.9975485969337191
  0.4996487694988775  0.6666179954585832 -0.0008547229893700
  0.6662348833501293  0.8325826388893925  0.0004826644707544
  0.8329830619995259 -0.0007437007309658  0.0004154312491923
  0.1663906665205842 -0.0000430144188865  0.6668424517791647
  0.1663373037028524  0.8331096760235200  0.8335777855439416
  0.3331220626575221 -0.0000418415312948  0.8335180555179900
  0.1662566806562137  0.6661921670900596  0.0003371854720893
  0.3330454180376856  0.8328161341673234  0.0005189025021272
  0.4997315209407473 -0.0007532453113432  0.0004096134025499
  0.1663199696651578 -0.0005590699414380  0.0002176214506199
 
  0.00000000E+00  0.00000000E+00  0.00000000E+00
  0.00000000E+00  0.00000000E+00  0.00000000E+00
  0.00000000E+00  0.00000000E+00  0.00000000E+00
  0.00000000E+00  0.00000000E+00  0.00000000E+00
  0.00000000E+00  0.00000000E+00  0.00000000E+00
  0.00000000E+00  0.00000000E+00  0.00000000E+00
  0.00000000E+00  0.00000000E+00  0.00000000E+00
  0.00000000E+00  0.00000000E+00  0.00000000E+00
  0.00000000E+00  0.00000000E+00  0.00000000E+00
  0.00000000E+00  0.00000000E+00  0.00000000E+00
  0.00000000E+00  0.00000000E+00  0.00000000E+00
  0.00000000E+00  0.00000000E+00  0.00000000E+00
  0.00000000E+00  0.00000000E+00  0.00000000E+00
  0.00000000E+00  0.00000000E+00  0.00000000E+00
  0.00000000E+00  0.00000000E+00  0.00000000E+00
  0.00000000E+00  0.00000000E+00  0.00000000E+00
  0.00000000E+00  0.00000000E+00  0.00000000E+00
  0.00000000E+00  0.00000000E+00  0.00000000E+00
  0.00000000E+00  0.00000000E+00  0.00000000E+00
  0.00000000E+00  0.00000000E+00  0.00000000E+00
  0.00000000E+00  0.00000000E+00  0.00000000E+00
  0.00000000E+00  0.00000000E+00  0.00000000E+00
  0.00000000E+00  0.00000000E+00  0.00000000E+00
  0.00000000E+00  0.00000000E+00  0.00000000E+00
  0.00000000E+00  0.00000000E+00  0.00000000E+00
  0.00000000E+00  0.00000000E+00  0.00000000E+00
  0.00000000E+00  0.00000000E+00  0.00000000E+00
  0.00000000E+00  0.00000000E+00  0.00000000E+00
  0.00000000E+00  0.00000000E+00  0.00000000E+00
  0.00000000E+00  0.00000000E+00  0.00000000E+00
  0.00000000E+00  0.00000000E+00  0.00000000E+00
  0.00000000E+00  0.00000000E+00  0.00000000E+00
  0.00000000E+00  0.00000000E+00  0.00000000E+00
  0.00000000E+00  0.00000000E+00  0.00000000E+00
  0.00000000E+00  0.00000000E+00  0.00000000E+00
  0.00000000E+00  0.00000000E+00  0.00000000E+00
  0.00000000E+00  0.00000000E+00  0.00000000E+00
  0.00000000E+00  0.00000000E+00  0.00000000E+00
  0.00000000E+00  0.00000000E+00  0.00000000E+00
  0.00000000E+00  0.00000000E+00  0.00000000E+00
  0.00000000E+00  0.00000000E+00  0.00000000E+00
  0.00000000E+00  0.00000000E+00  0.00000000E+00
  0.00000000E+00  0.00000000E+00  0.00000000E+00
  0.00000000E+00  0.00000000E+00  0.00000000E+00
  0.00000000E+00  0.00000000E+00  0.00000000E+00
  0.00000000E+00  0.00000000E+00  0.00000000E+00
  0.00000000E+00  0.00000000E+00  0.00000000E+00
  0.00000000E+00  0.00000000E+00  0.00000000E+00
  0.00000000E+00  0.00000000E+00  0.00000000E+00
  0.00000000E+00  0.00000000E+00  0.00000000E+00
  0.00000000E+00  0.00000000E+00  0.00000000E+00
  0.00000000E+00  0.00000000E+00  0.00000000E+00
  0.00000000E+00  0.00000000E+00  0.00000000E+00
  0.00000000E+00  0.00000000E+00  0.00000000E+00
  0.00000000E+00  0.00000000E+00  0.00000000E+00
  0.00000000E+00  0.00000000E+00  0.00000000E+00
  0.00000000E+00  0.00000000E+00  0.00000000E+00
  0.00000000E+00  0.00000000E+00  0.00000000E+00
  0.00000000E+00  0.00000000E+00  0.00000000E+00
  0.00000000E+00  0.00000000E+00  0.00000000E+00
  0.00000000E+00  0.00000000E+00  0.00000000E+00
  0.00000000E+00  0.00000000E+00  0.00000000E+00
  0.00000000E+00  0.00000000E+00  0.00000000E+00
  0.00000000E+00  0.00000000E+00  0.00000000E+00
  0.00000000E+00  0.00000000E+00  0.00000000E+00
  0.00000000E+00  0.00000000E+00  0.00000000E+00
  0.00000000E+00  0.00000000E+00  0.00000000E+00
  0.00000000E+00  0.00000000E+00  0.00000000E+00
  0.00000000E+00  0.00000000E+00  0.00000000E+00
  0.00000000E+00  0.00000000E+00  0.00000000E+00
  0.00000000E+00  0.00000000E+00  0.00000000E+00
  0.00000000E+00  0.00000000E+00  0.00000000E+00
  0.00000000E+00  0.00000000E+00  0.00000000E+00
  0.00000000E+00  0.00000000E+00  0.00000000E+00
  0.00000000E+00  0.00000000E+00  0.00000000E+00
  0.00000000E+00  0.00000000E+00  0.00000000E+00
  0.00000000E+00  0.00000000E+00  0.00000000E+00
  0.00000000E+00  0.00000000E+00  0.00000000E+00
  0.00000000E+00  0.00000000E+00  0.00000000E+00
  0.00000000E+00  0.00000000E+00  0.00000000E+00
  0.00000000E+00  0.00000000E+00  0.00000000E+00
  0.00000000E+00  0.00000000E+00  0.00000000E+00
  0.00000000E+00  0.00000000E+00  0.00000000E+00
  0.00000000E+00  0.00000000E+00  0.00000000E+00
  0.00000000E+00  0.00000000E+00  0.00000000E+00
  0.00000000E+00  0.00000000E+00  0.00000000E+00
  0.00000000E+00  0.00000000E+00  0.00000000E+00
  0.00000000E+00  0.00000000E+00  0.00000000E+00
  0.00000000E+00  0.00000000E+00  0.00000000E+00
  0.00000000E+00  0.00000000E+00  0.00000000E+00
  0.00000000E+00  0.00000000E+00  0.00000000E+00
  0.00000000E+00  0.00000000E+00  0.00000000E+00
  0.00000000E+00  0.00000000E+00  0.00000000E+00
  0.00000000E+00  0.00000000E+00  0.00000000E+00
  0.00000000E+00  0.00000000E+00  0.00000000E+00
  0.00000000E+00  0.00000000E+00  0.00000000E+00
  0.00000000E+00  0.00000000E+00  0.00000000E+00
  0.00000000E+00  0.00000000E+00  0.00000000E+00
  0.00000000E+00  0.00000000E+00  0.00000000E+00
  0.00000000E+00  0.00000000E+00  0.00000000E+00
  0.00000000E+00  0.00000000E+00  0.00000000E+00
  0.00000000E+00  0.00000000E+00  0.00000000E+00
  0.00000000E+00  0.00000000E+00  0.00000000E+00
  0.00000000E+00  0.00000000E+00  0.00000000E+00
  0.00000000E+00  0.00000000E+00  0.00000000E+00
  0.00000000E+00  0.00000000E+00  0.00000000E+00
  0.00000000E+00  0.00000000E+00  0.00000000E+00
  0.00000000E+00  0.00000000E+00  0.00000000E+00
  0.00000000E+00  0.00000000E+00  0.00000000E+00
  0.00000000E+00  0.00000000E+00  0.00000000E+00
  0.00000000E+00  0.00000000E+00  0.00000000E+00
  0.00000000E+00  0.00000000E+00  0.00000000E+00
  0.00000000E+00  0.00000000E+00  0.00000000E+00
  0.00000000E+00  0.00000000E+00  0.00000000E+00
  0.00000000E+00  0.00000000E+00  0.00000000E+00
  0.00000000E+00  0.00000000E+00  0.00000000E+00
  0.00000000E+00  0.00000000E+00  0.00000000E+00
  0.00000000E+00  0.00000000E+00  0.00000000E+00
  0.00000000E+00  0.00000000E+00  0.00000000E+00
  0.00000000E+00  0.00000000E+00  0.00000000E+00
  0.00000000E+00  0.00000000E+00  0.00000000E+00
  0.00000000E+00  0.00000000E+00  0.00000000E+00
  0.00000000E+00  0.00000000E+00  0.00000000E+00
  0.00000000E+00  0.00000000E+00  0.00000000E+00
  0.00000000E+00  0.00000000E+00  0.00000000E+00
  0.00000000E+00  0.00000000E+00  0.00000000E+00
  0.00000000E+00  0.00000000E+00  0.00000000E+00
  0.00000000E+00  0.00000000E+00  0.00000000E+00
  0.00000000E+00  0.00000000E+00  0.00000000E+00
  0.00000000E+00  0.00000000E+00  0.00000000E+00
  0.00000000E+00  0.00000000E+00  0.00000000E+00
  0.00000000E+00  0.00000000E+00  0.00000000E+00
  0.00000000E+00  0.00000000E+00  0.00000000E+00
  0.00000000E+00  0.00000000E+00  0.00000000E+00
  0.00000000E+00  0.00000000E+00  0.00000000E+00
  0.00000000E+00  0.00000000E+00  0.00000000E+00
  0.00000000E+00  0.00000000E+00  0.00000000E+00
  0.00000000E+00  0.00000000E+00  0.00000000E+00
  0.00000000E+00  0.00000000E+00  0.00000000E+00
  0.00000000E+00  0.00000000E+00  0.00000000E+00
  0.00000000E+00  0.00000000E+00  0.00000000E+00
  0.00000000E+00  0.00000000E+00  0.00000000E+00
  0.00000000E+00  0.00000000E+00  0.00000000E+00
  0.00000000E+00  0.00000000E+00  0.00000000E+00
  0.00000000E+00  0.00000000E+00  0.00000000E+00
  0.00000000E+00  0.00000000E+00  0.00000000E+00
  0.00000000E+00  0.00000000E+00  0.00000000E+00
  0.00000000E+00  0.00000000E+00  0.00000000E+00
  0.00000000E+00  0.00000000E+00  0.00000000E+00
  0.00000000E+00  0.00000000E+00  0.00000000E+00
  0.00000000E+00  0.00000000E+00  0.00000000E+00
  0.00000000E+00  0.00000000E+00  0.00000000E+00
  0.00000000E+00  0.00000000E+00  0.00000000E+00
  0.00000000E+00  0.00000000E+00  0.00000000E+00
  0.00000000E+00  0.00000000E+00  0.00000000E+00
  0.00000000E+00  0.00000000E+00  0.00000000E+00
  0.00000000E+00  0.00000000E+00  0.00000000E+00
  0.00000000E+00  0.00000000E+00  0.00000000E+00
  0.00000000E+00  0.00000000E+00  0.00000000E+00
  0.00000000E+00  0.00000000E+00  0.00000000E+00
  0.00000000E+00  0.00000000E+00  0.00000000E+00
  0.00000000E+00  0.00000000E+00  0.00000000E+00
  0.00000000E+00  0.00000000E+00  0.00000000E+00
  0.00000000E+00  0.00000000E+00  0.00000000E+00
  0.00000000E+00  0.00000000E+00  0.00000000E+00
  0.00000000E+00  0.00000000E+00  0.00000000E+00
  0.00000000E+00  0.00000000E+00  0.00000000E+00
  0.00000000E+00  0.00000000E+00  0.00000000E+00
  0.00000000E+00  0.00000000E+00  0.00000000E+00
  0.00000000E+00  0.00000000E+00  0.00000000E+00
  0.00000000E+00  0.00000000E+00  0.00000000E+00
  0.00000000E+00  0.00000000E+00  0.00000000E+00
  0.00000000E+00  0.00000000E+00  0.00000000E+00
  0.00000000E+00  0.00000000E+00  0.00000000E+00
  0.00000000E+00  0.00000000E+00  0.00000000E+00
  0.00000000E+00  0.00000000E+00  0.00000000E+00
  0.00000000E+00  0.00000000E+00  0.00000000E+00
  0.00000000E+00  0.00000000E+00  0.00000000E+00
  0.00000000E+00  0.00000000E+00  0.00000000E+00
  0.00000000E+00  0.00000000E+00  0.00000000E+00
  0.00000000E+00  0.00000000E+00  0.00000000E+00
  0.00000000E+00  0.00000000E+00  0.00000000E+00
  0.00000000E+00  0.00000000E+00  0.00000000E+00
  0.00000000E+00  0.00000000E+00  0.00000000E+00
  0.00000000E+00  0.00000000E+00  0.00000000E+00
  0.00000000E+00  0.00000000E+00  0.00000000E+00
  0.00000000E+00  0.00000000E+00  0.00000000E+00
  0.00000000E+00  0.00000000E+00  0.00000000E+00
  0.00000000E+00  0.00000000E+00  0.00000000E+00
  0.00000000E+00  0.00000000E+00  0.00000000E+00
  0.00000000E+00  0.00000000E+00  0.00000000E+00
  0.00000000E+00  0.00000000E+00  0.00000000E+00
  0.00000000E+00  0.00000000E+00  0.00000000E+00
  0.00000000E+00  0.00000000E+00  0.00000000E+00
  0.00000000E+00  0.00000000E+00  0.00000000E+00
  0.00000000E+00  0.00000000E+00  0.00000000E+00
  0.00000000E+00  0.00000000E+00  0.00000000E+00
  0.00000000E+00  0.00000000E+00  0.00000000E+00
  0.00000000E+00  0.00000000E+00  0.00000000E+00
  0.00000000E+00  0.00000000E+00  0.00000000E+00
  0.00000000E+00  0.00000000E+00  0.00000000E+00
  0.00000000E+00  0.00000000E+00  0.00000000E+00
  0.00000000E+00  0.00000000E+00  0.00000000E+00
  0.00000000E+00  0.00000000E+00  0.00000000E+00
  0.00000000E+00  0.00000000E+00  0.00000000E+00
  0.00000000E+00  0.00000000E+00  0.00000000E+00
  0.00000000E+00  0.00000000E+00  0.00000000E+00
  0.00000000E+00  0.00000000E+00  0.00000000E+00
  0.00000000E+00  0.00000000E+00  0.00000000E+00
  0.00000000E+00  0.00000000E+00  0.00000000E+00
  0.00000000E+00  0.00000000E+00  0.00000000E+00
  0.00000000E+00  0.00000000E+00  0.00000000E+00
  0.00000000E+00  0.00000000E+00  0.00000000E+00
  0.00000000E+00  0.00000000E+00  0.00000000E+00
  0.00000000E+00  0.00000000E+00  0.00000000E+00
  0.00000000E+00  0.00000000E+00  0.00000000E+00
