-30.0% N(Distort)=4 ~[0.5,0.5,0.5]      
   1.00000000000000     
    12.5998379999999983    0.0000000000000004    0.0000000000000004
     0.0000000000000004   12.5998379999999983   -0.0000000000000004
    -0.0000000000000004   -0.0000000000000004   12.5998379999999983
   Mg   O 
   109   107
Direct
  0.6668081676816976 -0.0005505526297089  0.0002445787059934
  0.8334701805563806  0.1657476658329567  0.0002628460721007
  0.8332761067718455 -0.0006281566118500  0.1666335799465495
  0.3325337195074382 -0.0004856930881754  0.0001328654337403
  0.4997039417823425  0.1648335494932660 -0.0013911114348276
  0.6671944219884507  0.3321604956312953  0.9991477701798880
  0.8337224200676749  0.4992628349712587  0.0000544555127091
  0.4994995896819465 -0.0004247278100351  0.1661926343555869
  0.6670331720556144  0.1652669417361318  0.1663679113159152
  0.8332585189724327  0.3321777710856653  0.1666008241182836
  0.6666231907030855  0.0003283718207462  0.3332762183289632
  0.8335125207310859  0.1652731220182586  0.3328742449413324
  0.8337165417620063 -0.0004043286657430  0.5004067330357349
 -0.0003064750616034 -0.0005487177333615  0.0002289415246182
  0.1660980566663779  0.1658575542761380 -0.0002145773616423
  0.3323407264581910  0.3320756216500146 -0.0017484521233298
  0.4994570294122968  0.4992198375683753  0.9956737349841361
  0.6666567153551030  0.6664043076185810  0.9993321732362909
  0.8332817188737385  0.8330523954432877  0.0002883372282526
  0.1659867910983117 -0.0006428525893492  0.1664497532088322
  0.3321758630730522  0.1652182532482238  0.1656768486648550
  0.4998245133709532  0.3261488139220955  0.1588255756773135
  0.6670889045009214  0.4989890754313255  0.1631810041283592
  0.8343136088187874  0.6663216462892186  0.1655617566582240
  0.3324189887250277  0.0004585714179215  0.3327118799978550
  0.4994314702404364  0.1648239277299707  0.3320888042570584
  0.6665795396745564  0.3310344877616295  0.3333063110138794
  0.8366300039380206  0.4990307446459946  0.3327837875063295
  0.4994455056087493  0.0039955067385801  0.5004558773471509
  0.6677877964364555  0.1648832392807454  0.5004361713071706
  0.8409167017481691  0.3263167539414331  0.5000607507452168
  0.6671955556094241  0.0005160005627620  0.6674727910337428
  0.8342067605989040  0.1652751743484925  0.6676981805328577
  0.8334688410178720 -0.0006030358801681  0.8339123544780959
 -0.0002454138735321  0.3322617588830948  0.0001330336241701
  0.1650879178151563  0.4994392702042761 -0.0013834580079792
  0.3324568013668437  0.6669457305754855 -0.0007740430266878
  0.4995481852579577  0.8334801776625428  0.0001139649225209
 -0.0003791450704963  0.1657160899840810  0.1664572765657697
  0.1654707476847974  0.3319248384545433  0.1656582064906584
  0.3265372912761600  0.4995586597102804  0.1588960269543290
  0.4992591262038166  0.6668519118813621  0.1632912342035166
  0.6665569409334617  0.8340908751023073  0.1656026884784794
 -0.0003294890804625 -0.0005745176054491  0.3331216740168184
  0.1655029709936368  0.1652717899357863  0.3328420386945884
  0.3289628354637203  0.3286612604617434  0.3327511437388281
  0.4812178208515597  0.4805497198245873  0.3007948919092078
  0.6723981886945215  0.6722462851353710  0.3274555292798937
  0.8342999122774905  0.8341063432054209  0.3333592179685139
  0.1650908080822214  0.0010473180957298  0.5002134841020696
  0.3323811733877614  0.1663833898932592  0.5001535332780367
  0.4997207708962631  0.3294728718208000  0.5001612103451221
  0.6988607197621443  0.4809050615788170  0.5186726335284324
  0.8366109724166431  0.6669018963768142  0.5006402692546624
  0.3323424792041105  0.0014121345228116  0.6675861794328676
  0.4997393783918050  0.1663910938811679  0.6675084891551174
  0.6671411703303644  0.3287574031236671  0.6708818657729890
  0.8409413661453636  0.4995958870699032  0.6733058966774631
  0.4997460245528871  0.0010663257902985  0.8348423090801879
  0.6670744248893158  0.1653084725780945  0.8343683672233113
  0.8342269302821586  0.3319642975856570  0.8343927715846516
 -0.0002982198936945  0.6665605938936632  0.0002083177803337
  0.1660079101191279  0.8331887709721711  0.0002922816355840
 -0.0001903806877807  0.4992626872458849  0.1661862831473605
  0.1655316216370148  0.6667496978342788  0.1663823227612527
  0.3324386446179827  0.8330318526163858  0.1666277820558111
  0.0006827549810311  0.3321783982523885  0.3327057222088756
  0.1651572948756252  0.4991739968305370  0.3320886659434170
  0.3313862115714729  0.6663192789762170  0.3333205485420895
  0.4992291194440932  0.8363688727334401  0.3328339742991209
  0.0012478806203729  0.1648675520271907  0.5001990852062156
  0.1665944437004744  0.3321652554330551  0.5001602228118002
  0.3297732885021346  0.4994744072087915  0.5001712412060975
  0.4811552392657181  0.6989258764160915  0.5191047227654008
  0.6670990786277678  0.8364759333648224  0.5006739531907254
 -0.0002315724106160 -0.0004547173660969  0.6673950508684210
  0.1665458237170036  0.1663313167888870  0.6671606351601246
  0.3331633037039105  0.3329317336618858  0.6667370698408940
  0.4997183312443529  0.4994702175325987  0.6701868390122333
  0.6665978224937578  0.6663564450661997  0.6686271331769440
  0.8332746177566465  0.8330651945357425  0.6674810406427739
  0.1661159550039900 -0.0001301998495114  0.8338223614495704
  0.3327613552535386  0.1663357890330130  0.8333240813082109
  0.4997444790115049  0.3321704707027427  0.8332895449078255
  0.6678111987382650  0.4991942988402285  0.8347592247417566
  0.8335427851171878  0.6667869022374604  0.8343740116614828
 -0.0003717529783744  0.8330372432917410  0.1666370448353388
  0.0005745023313047  0.6664032510256311  0.3332418081561591
  0.1655573181665709  0.8332868829606707  0.3328989065926376
  0.0041676139562848  0.4992401267725370  0.5003939059766844
  0.1651566755036699  0.6675471949557118  0.5004413242843243
  0.3265393445013756  0.8407836080411099  0.5000898219792360
  0.0015860423548213  0.3321052263492349  0.6675416204991476
  0.1666005344077471  0.4994976258813971  0.6674838689355919
  0.3289881259504792  0.6668847797901020  0.6709581242011217
  0.4998570617239081  0.8408695983628259  0.6734866230347786
  0.0000966429271682  0.1658833861791890  0.8338001127164495
  0.1665656835196623  0.3325022362886882  0.8333076405299557
  0.3323934582626664  0.4995094644305946  0.8333001903819223
  0.4994701546696884  0.6675719753930972  0.8348555566691441
  0.6670370753308945  0.8333045979866975  0.8343911769781568
 -0.0001701023319218  0.8334752343311206  0.5003871607573188
  0.0006965495503064  0.6669604600491833  0.6674366927287729
  0.1655099301918208  0.8339927931868114  0.6677197909122611
  0.0012634681934361  0.4994706721540489  0.8347868189266722
  0.1655532644917752  0.6668380655779136  0.8343506048603840
  0.3322311439892692  0.8339700807751906  0.8344340410643476
 -0.0003756217194845  0.8332138963138633  0.8339304636207168
  0.5559476509997228  0.5561821792232587  0.4435457066436524
  0.8328277436687594  0.1661534964046189  0.1670787477914497
 -0.0006338676200015  0.3327504183787140  0.1668039902064120
 -0.0004655988251051  0.1659900823014457  0.3334451371597002
  0.4996495908633232  0.1649620061956802  0.1655616445060511
  0.6654471717436418  0.3335751752636146  0.1672113679561883
  0.8316386600775053  0.4994427439048006  0.1682355605303268
 -0.0005884373319995  0.6659536786679231  0.1670854219392428
  0.6663511896650661  0.1665241567016648  0.3335531401271041
  0.8326208953643310  0.3336200537442318  0.3344286193718764
  0.0007857253421835  0.4993511593529311  0.3330099555915222
  0.8342994532513573  0.1650573753482509  0.5002468201341080
  0.0022636224798403  0.3318405097776846  0.5000930453693072
  0.0001641748355859  0.1661563247806924  0.6668059406791809
  0.1662916020162822  0.1660581343587387  0.1665524753355575
  0.3335790630952393  0.3333062741059484  0.1659045332646655
  0.4988039915072709  0.4984937106016260  0.1553614417021170
  0.6654280283753187  0.6651716140915206  0.1669909229034617
  0.8324478199060387  0.8322123471593798  0.1674585186898895
 -0.0005154290431386 -0.0007708478928964  0.1669574465784260
  0.3326157145998538  0.1658334053042443  0.3329810047212796
  0.4984031156232291  0.3297298265462705  0.3307774722774126
  0.6593777011277497  0.4996793827065917  0.3403459939202673
  0.8328534819094142  0.6651795865352358  0.3344776711122519
 -0.0005635672615264  0.8325600957977256  0.3337059956704708
  0.5001249662909011  0.1672351196132753  0.4997724317340898
  0.6690796578566148  0.3299081534492749  0.5014692143239521
  0.8443669016937954  0.4985899553323704  0.5010708155900425
  0.0007733151472527  0.6666358217629431  0.5002584314621481
  0.6669133865043719  0.1659049329519113  0.6672312069871291
  0.8339375591844486  0.3333657393093942  0.6663107420510092
  0.0023071768457761  0.4995504278407875  0.6677935627014513
  0.8333475105057412  0.1661088602296499  0.8335519433718226
  0.0001761102786870  0.3328625140199387  0.8335034809948223
 -0.0003137800498638  0.1660531637612790  0.0002011860766974
  0.1652687111487243  0.4993884263866714  0.1655805190895789
  0.3338576103102348  0.6651878103071193  0.1672157665277160
  0.4997279219193062  0.8314374147686492  0.1682539689481594
  0.6662075311229976 -0.0007976528968401  0.1670868971490523
  0.1661137731833773  0.3323936323952337  0.3329884103733474
  0.3302549966104911  0.4981137964861401  0.3307475198553872
  0.4999239644635550  0.6595213545780862  0.3402162683873458
  0.6654149143957206  0.8326951775676482  0.3345015697760895
  0.8328089245959523 -0.0008098376132133  0.3337052463797136
  0.1668062046183929  0.1666138011789676  0.4999318990721347
  0.3341258934434647  0.3338695782549509  0.4992186602524363
  0.6594066006713696  0.6594065236066592  0.4999838880025075
  0.8316422885934722  0.8314498449205330  0.5001978906201469
  0.9994953748015695 -0.0007386119599752  0.5002111400958696
  0.3334393867743238  0.1672386892572630  0.6664554527252780
  0.5006677515545266  0.3338829379116824  0.6657657242241096
  0.6690848630160392  0.4981728040138457  0.6697013684953798
  0.8326428846085263  0.6652189200557030  0.6660225931601134
 -0.0006126993647223  0.8328446983115946  0.6668931002615949
  0.4999962609119757  0.1666374776680087  0.8330740195249834
  0.6669330992013941  0.3324078005962928  0.8337372682373654
  0.8343307982130052  0.4994253153330027  0.8345993119458113
 -0.0004324616984756  0.6661986740188753  0.8336373625261275
  0.6664659825104783  0.1659912716290666  0.0003277644694502
  0.8330898428290779  0.3327656849503305  0.0004967829243352
 -0.0005156216773404  0.4994599836478526  0.0004000332610918
  0.1664214608889232  0.8325298081437927  0.1671061220886856
  0.3330057540647992 -0.0008865339782573  0.1668154423453325
  0.1668003082914823  0.6660811173500909  0.3335680844215146
  0.3338308262416305  0.8324194652271825  0.3344508021958277
  0.4995935464045821  0.0005233278054180  0.3330462001737564
  0.1675220401727373  0.4998816630099804  0.4997368375748270
  0.3302450728025138  0.6688662979548845  0.5015047282976045
  0.4987732797168156  0.8443143278658085  0.5012060227341828
  0.6668668519437988  0.0005571030188355  0.5002986080747821
  0.1674704389002295  0.3332055609759527  0.6664310988426188
  0.3341353905341285  0.5004194240297498  0.6657718871147820
  0.4984098701529588  0.6688737109729432  0.6699102894299893
  0.6654594572101484  0.8324560504672899  0.6660847365937216
  0.8330967646729110 -0.0008469053892917  0.6668911388675676
  0.1665872954406865  0.1663889469600613  0.8333025483769432
  0.3334434960220032  0.3332023636191881  0.8323763759665624
  0.5001403948198653  0.4998772160417247  0.8324052352109752
  0.6663797377563843  0.6661053994760624  0.8331519035134918
  0.8328247444158184  0.8325698009688537  0.8334953581831981
 -0.0002957911899125 -0.0005300279168458  0.8336094497124041
  0.3330610887047821  0.1661230268980218 -0.0003082332621631
  0.4997835023658579  0.3317708297723316 -0.0024689991908446
  0.6668937635232409  0.4993331686751293 -0.0009287687729099
  0.8328308575950935  0.6659579615387834  0.0004739179758726
 -0.0004911028234110  0.8327082975811694  0.0004160332656454
  0.1662127269637713 -0.0007148187995954  0.3334467868926245
  0.1652808736015599  0.8340697075555701  0.5002585065140519
  0.3320211599169632  0.0020930927052949  0.5001204204932702
  0.1661395755460092  0.6666831243466655  0.6672040694708722
  0.3336182454248925  0.8337277638937606  0.6663408886898138
  0.4997957207270065  0.0021339499726067  0.6678847221785927
  0.1668191322203559  0.4997414364540891  0.8330310979829465
  0.3326659034538392  0.6666721931563262  0.8337919947661896
  0.4997022205358641  0.8341076623537879  0.8346961102820077
  0.6664934195206855 -0.0006612285396036  0.8336746777055370
  0.1663577073874863  0.3328296510297973 -0.0003140999363082
  0.3320469989206077  0.4995071964057838  0.9975506696821574
  0.4996337913853740  0.6666132581372877 -0.0008570508171088
  0.6662218535328125  0.8325718393806496  0.0004885061651796
  0.8329592814364238 -0.0007380197031853  0.0004084852439764
  0.1663905671135578 -0.0000417883647131  0.6668424028310008
  0.1663402032344074  0.8331159235051830  0.8335748373441488
  0.3331288572184038 -0.0000367669138199  0.8335135311990387
  0.1662348328689281  0.6661873432349970  0.0003394972066127
  0.3330329945862824  0.8328250341966282  0.0005324660600169
  0.4997246682706848 -0.0007586149841042  0.0004196863078695
  0.1662863423825464 -0.0005538903805893  0.0002166104336810
 
  0.00000000E+00  0.00000000E+00  0.00000000E+00
  0.00000000E+00  0.00000000E+00  0.00000000E+00
  0.00000000E+00  0.00000000E+00  0.00000000E+00
  0.00000000E+00  0.00000000E+00  0.00000000E+00
  0.00000000E+00  0.00000000E+00  0.00000000E+00
  0.00000000E+00  0.00000000E+00  0.00000000E+00
  0.00000000E+00  0.00000000E+00  0.00000000E+00
  0.00000000E+00  0.00000000E+00  0.00000000E+00
  0.00000000E+00  0.00000000E+00  0.00000000E+00
  0.00000000E+00  0.00000000E+00  0.00000000E+00
  0.00000000E+00  0.00000000E+00  0.00000000E+00
  0.00000000E+00  0.00000000E+00  0.00000000E+00
  0.00000000E+00  0.00000000E+00  0.00000000E+00
  0.00000000E+00  0.00000000E+00  0.00000000E+00
  0.00000000E+00  0.00000000E+00  0.00000000E+00
  0.00000000E+00  0.00000000E+00  0.00000000E+00
  0.00000000E+00  0.00000000E+00  0.00000000E+00
  0.00000000E+00  0.00000000E+00  0.00000000E+00
  0.00000000E+00  0.00000000E+00  0.00000000E+00
  0.00000000E+00  0.00000000E+00  0.00000000E+00
  0.00000000E+00  0.00000000E+00  0.00000000E+00
  0.00000000E+00  0.00000000E+00  0.00000000E+00
  0.00000000E+00  0.00000000E+00  0.00000000E+00
  0.00000000E+00  0.00000000E+00  0.00000000E+00
  0.00000000E+00  0.00000000E+00  0.00000000E+00
  0.00000000E+00  0.00000000E+00  0.00000000E+00
  0.00000000E+00  0.00000000E+00  0.00000000E+00
  0.00000000E+00  0.00000000E+00  0.00000000E+00
  0.00000000E+00  0.00000000E+00  0.00000000E+00
  0.00000000E+00  0.00000000E+00  0.00000000E+00
  0.00000000E+00  0.00000000E+00  0.00000000E+00
  0.00000000E+00  0.00000000E+00  0.00000000E+00
  0.00000000E+00  0.00000000E+00  0.00000000E+00
  0.00000000E+00  0.00000000E+00  0.00000000E+00
  0.00000000E+00  0.00000000E+00  0.00000000E+00
  0.00000000E+00  0.00000000E+00  0.00000000E+00
  0.00000000E+00  0.00000000E+00  0.00000000E+00
  0.00000000E+00  0.00000000E+00  0.00000000E+00
  0.00000000E+00  0.00000000E+00  0.00000000E+00
  0.00000000E+00  0.00000000E+00  0.00000000E+00
  0.00000000E+00  0.00000000E+00  0.00000000E+00
  0.00000000E+00  0.00000000E+00  0.00000000E+00
  0.00000000E+00  0.00000000E+00  0.00000000E+00
  0.00000000E+00  0.00000000E+00  0.00000000E+00
  0.00000000E+00  0.00000000E+00  0.00000000E+00
  0.00000000E+00  0.00000000E+00  0.00000000E+00
  0.00000000E+00  0.00000000E+00  0.00000000E+00
  0.00000000E+00  0.00000000E+00  0.00000000E+00
  0.00000000E+00  0.00000000E+00  0.00000000E+00
  0.00000000E+00  0.00000000E+00  0.00000000E+00
  0.00000000E+00  0.00000000E+00  0.00000000E+00
  0.00000000E+00  0.00000000E+00  0.00000000E+00
  0.00000000E+00  0.00000000E+00  0.00000000E+00
  0.00000000E+00  0.00000000E+00  0.00000000E+00
  0.00000000E+00  0.00000000E+00  0.00000000E+00
  0.00000000E+00  0.00000000E+00  0.00000000E+00
  0.00000000E+00  0.00000000E+00  0.00000000E+00
  0.00000000E+00  0.00000000E+00  0.00000000E+00
  0.00000000E+00  0.00000000E+00  0.00000000E+00
  0.00000000E+00  0.00000000E+00  0.00000000E+00
  0.00000000E+00  0.00000000E+00  0.00000000E+00
  0.00000000E+00  0.00000000E+00  0.00000000E+00
  0.00000000E+00  0.00000000E+00  0.00000000E+00
  0.00000000E+00  0.00000000E+00  0.00000000E+00
  0.00000000E+00  0.00000000E+00  0.00000000E+00
  0.00000000E+00  0.00000000E+00  0.00000000E+00
  0.00000000E+00  0.00000000E+00  0.00000000E+00
  0.00000000E+00  0.00000000E+00  0.00000000E+00
  0.00000000E+00  0.00000000E+00  0.00000000E+00
  0.00000000E+00  0.00000000E+00  0.00000000E+00
  0.00000000E+00  0.00000000E+00  0.00000000E+00
  0.00000000E+00  0.00000000E+00  0.00000000E+00
  0.00000000E+00  0.00000000E+00  0.00000000E+00
  0.00000000E+00  0.00000000E+00  0.00000000E+00
  0.00000000E+00  0.00000000E+00  0.00000000E+00
  0.00000000E+00  0.00000000E+00  0.00000000E+00
  0.00000000E+00  0.00000000E+00  0.00000000E+00
  0.00000000E+00  0.00000000E+00  0.00000000E+00
  0.00000000E+00  0.00000000E+00  0.00000000E+00
  0.00000000E+00  0.00000000E+00  0.00000000E+00
  0.00000000E+00  0.00000000E+00  0.00000000E+00
  0.00000000E+00  0.00000000E+00  0.00000000E+00
  0.00000000E+00  0.00000000E+00  0.00000000E+00
  0.00000000E+00  0.00000000E+00  0.00000000E+00
  0.00000000E+00  0.00000000E+00  0.00000000E+00
  0.00000000E+00  0.00000000E+00  0.00000000E+00
  0.00000000E+00  0.00000000E+00  0.00000000E+00
  0.00000000E+00  0.00000000E+00  0.00000000E+00
  0.00000000E+00  0.00000000E+00  0.00000000E+00
  0.00000000E+00  0.00000000E+00  0.00000000E+00
  0.00000000E+00  0.00000000E+00  0.00000000E+00
  0.00000000E+00  0.00000000E+00  0.00000000E+00
  0.00000000E+00  0.00000000E+00  0.00000000E+00
  0.00000000E+00  0.00000000E+00  0.00000000E+00
  0.00000000E+00  0.00000000E+00  0.00000000E+00
  0.00000000E+00  0.00000000E+00  0.00000000E+00
  0.00000000E+00  0.00000000E+00  0.00000000E+00
  0.00000000E+00  0.00000000E+00  0.00000000E+00
  0.00000000E+00  0.00000000E+00  0.00000000E+00
  0.00000000E+00  0.00000000E+00  0.00000000E+00
  0.00000000E+00  0.00000000E+00  0.00000000E+00
  0.00000000E+00  0.00000000E+00  0.00000000E+00
  0.00000000E+00  0.00000000E+00  0.00000000E+00
  0.00000000E+00  0.00000000E+00  0.00000000E+00
  0.00000000E+00  0.00000000E+00  0.00000000E+00
  0.00000000E+00  0.00000000E+00  0.00000000E+00
  0.00000000E+00  0.00000000E+00  0.00000000E+00
  0.00000000E+00  0.00000000E+00  0.00000000E+00
  0.00000000E+00  0.00000000E+00  0.00000000E+00
  0.00000000E+00  0.00000000E+00  0.00000000E+00
  0.00000000E+00  0.00000000E+00  0.00000000E+00
  0.00000000E+00  0.00000000E+00  0.00000000E+00
  0.00000000E+00  0.00000000E+00  0.00000000E+00
  0.00000000E+00  0.00000000E+00  0.00000000E+00
  0.00000000E+00  0.00000000E+00  0.00000000E+00
  0.00000000E+00  0.00000000E+00  0.00000000E+00
  0.00000000E+00  0.00000000E+00  0.00000000E+00
  0.00000000E+00  0.00000000E+00  0.00000000E+00
  0.00000000E+00  0.00000000E+00  0.00000000E+00
  0.00000000E+00  0.00000000E+00  0.00000000E+00
  0.00000000E+00  0.00000000E+00  0.00000000E+00
  0.00000000E+00  0.00000000E+00  0.00000000E+00
  0.00000000E+00  0.00000000E+00  0.00000000E+00
  0.00000000E+00  0.00000000E+00  0.00000000E+00
  0.00000000E+00  0.00000000E+00  0.00000000E+00
  0.00000000E+00  0.00000000E+00  0.00000000E+00
  0.00000000E+00  0.00000000E+00  0.00000000E+00
  0.00000000E+00  0.00000000E+00  0.00000000E+00
  0.00000000E+00  0.00000000E+00  0.00000000E+00
  0.00000000E+00  0.00000000E+00  0.00000000E+00
  0.00000000E+00  0.00000000E+00  0.00000000E+00
  0.00000000E+00  0.00000000E+00  0.00000000E+00
  0.00000000E+00  0.00000000E+00  0.00000000E+00
  0.00000000E+00  0.00000000E+00  0.00000000E+00
  0.00000000E+00  0.00000000E+00  0.00000000E+00
  0.00000000E+00  0.00000000E+00  0.00000000E+00
  0.00000000E+00  0.00000000E+00  0.00000000E+00
  0.00000000E+00  0.00000000E+00  0.00000000E+00
  0.00000000E+00  0.00000000E+00  0.00000000E+00
  0.00000000E+00  0.00000000E+00  0.00000000E+00
  0.00000000E+00  0.00000000E+00  0.00000000E+00
  0.00000000E+00  0.00000000E+00  0.00000000E+00
  0.00000000E+00  0.00000000E+00  0.00000000E+00
  0.00000000E+00  0.00000000E+00  0.00000000E+00
  0.00000000E+00  0.00000000E+00  0.00000000E+00
  0.00000000E+00  0.00000000E+00  0.00000000E+00
  0.00000000E+00  0.00000000E+00  0.00000000E+00
  0.00000000E+00  0.00000000E+00  0.00000000E+00
  0.00000000E+00  0.00000000E+00  0.00000000E+00
  0.00000000E+00  0.00000000E+00  0.00000000E+00
  0.00000000E+00  0.00000000E+00  0.00000000E+00
  0.00000000E+00  0.00000000E+00  0.00000000E+00
  0.00000000E+00  0.00000000E+00  0.00000000E+00
  0.00000000E+00  0.00000000E+00  0.00000000E+00
  0.00000000E+00  0.00000000E+00  0.00000000E+00
  0.00000000E+00  0.00000000E+00  0.00000000E+00
  0.00000000E+00  0.00000000E+00  0.00000000E+00
  0.00000000E+00  0.00000000E+00  0.00000000E+00
  0.00000000E+00  0.00000000E+00  0.00000000E+00
  0.00000000E+00  0.00000000E+00  0.00000000E+00
  0.00000000E+00  0.00000000E+00  0.00000000E+00
  0.00000000E+00  0.00000000E+00  0.00000000E+00
  0.00000000E+00  0.00000000E+00  0.00000000E+00
  0.00000000E+00  0.00000000E+00  0.00000000E+00
  0.00000000E+00  0.00000000E+00  0.00000000E+00
  0.00000000E+00  0.00000000E+00  0.00000000E+00
  0.00000000E+00  0.00000000E+00  0.00000000E+00
  0.00000000E+00  0.00000000E+00  0.00000000E+00
  0.00000000E+00  0.00000000E+00  0.00000000E+00
  0.00000000E+00  0.00000000E+00  0.00000000E+00
  0.00000000E+00  0.00000000E+00  0.00000000E+00
  0.00000000E+00  0.00000000E+00  0.00000000E+00
  0.00000000E+00  0.00000000E+00  0.00000000E+00
  0.00000000E+00  0.00000000E+00  0.00000000E+00
  0.00000000E+00  0.00000000E+00  0.00000000E+00
  0.00000000E+00  0.00000000E+00  0.00000000E+00
  0.00000000E+00  0.00000000E+00  0.00000000E+00
  0.00000000E+00  0.00000000E+00  0.00000000E+00
  0.00000000E+00  0.00000000E+00  0.00000000E+00
  0.00000000E+00  0.00000000E+00  0.00000000E+00
  0.00000000E+00  0.00000000E+00  0.00000000E+00
  0.00000000E+00  0.00000000E+00  0.00000000E+00
  0.00000000E+00  0.00000000E+00  0.00000000E+00
  0.00000000E+00  0.00000000E+00  0.00000000E+00
  0.00000000E+00  0.00000000E+00  0.00000000E+00
  0.00000000E+00  0.00000000E+00  0.00000000E+00
  0.00000000E+00  0.00000000E+00  0.00000000E+00
  0.00000000E+00  0.00000000E+00  0.00000000E+00
  0.00000000E+00  0.00000000E+00  0.00000000E+00
  0.00000000E+00  0.00000000E+00  0.00000000E+00
  0.00000000E+00  0.00000000E+00  0.00000000E+00
  0.00000000E+00  0.00000000E+00  0.00000000E+00
  0.00000000E+00  0.00000000E+00  0.00000000E+00
  0.00000000E+00  0.00000000E+00  0.00000000E+00
  0.00000000E+00  0.00000000E+00  0.00000000E+00
  0.00000000E+00  0.00000000E+00  0.00000000E+00
  0.00000000E+00  0.00000000E+00  0.00000000E+00
  0.00000000E+00  0.00000000E+00  0.00000000E+00
  0.00000000E+00  0.00000000E+00  0.00000000E+00
  0.00000000E+00  0.00000000E+00  0.00000000E+00
  0.00000000E+00  0.00000000E+00  0.00000000E+00
  0.00000000E+00  0.00000000E+00  0.00000000E+00
  0.00000000E+00  0.00000000E+00  0.00000000E+00
  0.00000000E+00  0.00000000E+00  0.00000000E+00
  0.00000000E+00  0.00000000E+00  0.00000000E+00
  0.00000000E+00  0.00000000E+00  0.00000000E+00
  0.00000000E+00  0.00000000E+00  0.00000000E+00
  0.00000000E+00  0.00000000E+00  0.00000000E+00
  0.00000000E+00  0.00000000E+00  0.00000000E+00
  0.00000000E+00  0.00000000E+00  0.00000000E+00
  0.00000000E+00  0.00000000E+00  0.00000000E+00
  0.00000000E+00  0.00000000E+00  0.00000000E+00
  0.00000000E+00  0.00000000E+00  0.00000000E+00
  0.00000000E+00  0.00000000E+00  0.00000000E+00
  0.00000000E+00  0.00000000E+00  0.00000000E+00
  0.00000000E+00  0.00000000E+00  0.00000000E+00
