0.0% N(Distort)=2 ~[0.5,0.5,0.5]        
   1.00000000000000     
    12.5998379999999983    0.0000000000000004    0.0000000000000004
     0.0000000000000004   12.5998379999999983   -0.0000000000000004
    -0.0000000000000004   -0.0000000000000004   12.5998379999999983
   Mg   O 
   109   107
Direct
  0.6665011961551055 -0.0005269227415674  0.0005608448559442
  0.8331648809326351  0.1657681110211461  0.0006318157277636
  0.8330208634242431 -0.0005631317990961  0.1669479584745309
  0.3322763439985573 -0.0004718852438215  0.0004778118529827
  0.4993934350358983  0.1648043556034403 -0.0009792063670129
  0.6669245276193976  0.3321872589030271  0.9996294432872029
  0.8334856088884145  0.4992785500111065  0.0005038728371524
  0.4992524650544314  0.9995608546684676  0.1664929845132927
  0.6667252471732162  0.1652682864815975  0.1667336557617705
  0.8330402351615117  0.3322010161422152  0.1669508677975346
  0.6664408612737561  0.0003144974412163  0.3335687343060369
  0.8332538038640798  0.1652573995026628  0.3332649381492163
  0.8335241285752371 -0.0004435930646969  0.5007401908620392
  0.9994472409181921 -0.0005350816752325  0.0005194036153639
  0.1658304241586453  0.1658667155182438  0.0001386970862957
  0.3320282387905268  0.3320853211894436 -0.0013062494930085
  0.4992158963574630  0.4992527762650441  0.9963723957764677
  0.6664195418580344  0.6664741477116459 -0.0002559476498136
  0.8330276650272724  0.8330731766465007  0.0006131440874542
  0.1657290124343569 -0.0006156962774412  0.1667951020523384
  0.3319244955637871  0.1651892412644132  0.1660515759947450
  0.4995668641801335  0.3261441364749710  0.1593130789150622
  0.6669073828952738  0.4990470709993403  0.1637230983476176
  0.8341816527228975  0.6663703776533783  0.1658162252359004
  0.3321617243799904  0.0003785196103777  0.3330367563517989
  0.4991832919285312  0.1646352995149327  0.3323675624933535
  0.6663248061801255  0.3309831630606534  0.3336651675826626
  0.8362977208917786  0.4990657862538118  0.3331040966898007
  0.4992358685036035  0.0036520771539681  0.5007535949803590
  0.6676077217105747  0.1646519879914012  0.5008165713538909
  0.8406489074726436  0.3261694129983272  0.5004087701285751
  0.6669720081052438  0.0003962492711784  0.6678280774265243
  0.8339469472931436  0.1652090833412143  0.6680523934393768
  0.8331961297750506 -0.0006057144882709  0.8342495891830906
 -0.0005198588788443  0.3323040936773488  0.0004953826217141
  0.1647484702695884  0.4994554401541559 -0.0009720102920544
  0.3321441411523185  0.6669994062304115 -0.0003774146599414
  0.4992542429942751  0.8335341539982398  0.0004797779003830
 -0.0006566928429665  0.1657583100040864  0.1667968689166796
  0.1651320683758113  0.3319714500057854  0.1660744356888949
  0.3260767775427761  0.4996489768319792  0.1593135113220354
  0.4990125137460690  0.6669549340490973  0.1636974413279381
  0.6663294708224285  0.8342453843584272  0.1658142257019144
  0.9994163618276781 -0.0005554620756231  0.3334716663354587
  0.1651989967735617  0.1652281607925507  0.3332102385554760
  0.3284899909086528  0.3285291998396764  0.3331577754017957
  0.4802335012410403  0.4803327006852852  0.3016927062118977
  0.6726955774427391  0.6727360905604444  0.3272949163605694
  0.8341838478937355  0.8342483921984279  0.3336709690952430
  0.1647737369476266  0.0009720410822135  0.5005534685328297
  0.3320739105308988  0.1662045400530879  0.5005128946131557
  0.4995205674536514  0.3288991165250466  0.5004741243786553
  0.6982625265938578  0.4804310764543321  0.5197563871794375
  0.8363344810934562  0.6669608218123980  0.5009897933188268
  0.3320677157059471  0.0012935840077547  0.6679146701973490
  0.4994712166015913  0.1662127480893201  0.6679015139408268
  0.6668116133668831  0.3285752119912642  0.6714771337017148
  0.8406753904664511  0.4996427147877596  0.6738934516010766
  0.4994228749450437  0.0009964158700155  0.8352088183664697
  0.6667673020865852  0.1652472713846941  0.8347724341507518
  0.8339112556825129  0.3319772193438355  0.8348289064270834
 -0.0005898955547320  0.6665384740816064  0.0005824970536995
  0.1657275142004759  0.8332154001338388  0.0006213712406591
 -0.0005025371041002  0.4992859026866464  0.1665120256202455
  0.1651762060460385  0.6667838364794058  0.1667461999503710
  0.3321739059250347  0.8330753565481611  0.1669348448964638
  0.0003502422013288  0.3321844804270901  0.3330599790534216
  0.1645901734322456  0.4992041313667530  0.3323755120515728
  0.3309372495721707  0.6663759223761204  0.3336419888634513
  0.4990353741229013  0.8363301316144998  0.3330746164257499
  0.0009685249248495  0.1647902844158367  0.5005696736467294
  0.1661977135946791  0.3320999457553372  0.5005180568428387
  0.3288921471247098  0.4995428973740847  0.5004675393890661
  0.4804180219339782  0.6982865101407679  0.5196918936757997
  0.6669362884017180  0.8363649133256551  0.5009906358133912
  0.9995185954574178 -0.0004622144380142  0.6677012492294946
  0.1663128071880529  0.1663167422637516  0.6674810430923351
  0.3329444603994979  0.3329473240139952  0.6670581697383400
  0.4995483518161203  0.4995695198413447  0.6711562779660668
  0.6663606851104633  0.6663852147632805  0.6691107707938043
  0.8330682438502093  0.8330753499013694  0.6678337370804649
  0.1658558196075700 -0.0001267857401916  0.8341294001473303
  0.3324950748476572  0.1663204724869018  0.8336802411537869
  0.4994649282398370  0.3320927799276883  0.8338005523442463
  0.6676101600576279  0.4992129428103623  0.8354299548543412
  0.8332654009947043  0.6667704304373675  0.8348355839919973
 -0.0006322338443526  0.8330790637535993  0.1669544796477578
  0.0002612479337455  0.6664861165585472  0.3335625857561892
  0.1652141547484706  0.8332801469287927  0.3332439031414547
  0.0036262923294662  0.4992544666335911  0.5007704760753637
  0.1646307517658347  0.6676277744067843  0.5008077191391724
  0.3261603843994541  0.8406685554391987  0.5003937299915057
  0.0012848716554462  0.3320838364771372  0.6679357363315522
  0.1662102565309803  0.4994914377701121  0.6679295290820837
  0.3285690540377669  0.6668507102694858  0.6714684617602475
  0.4996241392123397  0.8406971985960008  0.6738729778166315
 -0.0001594989847495  0.1658705205172835  0.8341455994027469
  0.1662901787139918  0.3325127580050162  0.8336892370462972
  0.3320753582905887  0.4994980010611154  0.8338108669373556
  0.4991923646493602  0.6676560928121348  0.8354175034671245
  0.6667621995733446  0.8332894279840007  0.8348101045456812
 -0.0004638645592597  0.8335290069395277  0.5007363930213854
  0.0003900630320016  0.6669900369181658  0.6678384868013121
  0.1651833583430938  0.8339508161017579  0.6680403654984775
  0.0009647223884407  0.4994552018814351  0.8352385879617191
  0.1652234567990965  0.6668030739513433  0.8347829461854220
  0.3319597241482866  0.8339554636870166  0.8348126925587436
 -0.0006293030865036  0.8332247554208538  0.8342329408615796
  0.5572248379326176  0.5572455706445362  0.4426440804152772
  0.8324801862067637  0.1662158480870187  0.1675017407623499
 -0.0009926221525522  0.3327941500892496  0.1672222178730896
  0.9991805105842891  0.1659873268796938  0.3337617920635660
  0.4994260841955634  0.1649038593568530  0.1658901568136870
  0.6651992663224586  0.3337097854649073  0.1676759240060912
  0.8314101219421547  0.4995622823588036  0.1685994372426702
 -0.0009323780951684  0.6660330232863486  0.1674765527837432
  0.6661240912320782  0.1663848690409074  0.3338756364382704
  0.8323201324063768  0.3337080532626675  0.3347882307650061
  0.0002416498309170  0.4994640048149958  0.3333819457535517
  0.8341063885282298  0.1649188885843143  0.5005619043583804
  0.0018219072113143  0.3318883315485205  0.5004286358462091
 -0.0001657145835765  0.1661262123176775  0.6671851000035552
  0.1660205670279054  0.1660584225113816  0.1669547745725254
  0.3333624041790513  0.3334255288165971  0.1663890967854350
  0.4986520285750063  0.4987083874644568  0.1563528232751823
  0.6652512124055983  0.6653158706788187  0.1673047981531326
  0.8321132268910536  0.8321825277477276  0.1678536371368233
  0.9991818819499786 -0.0007832617520933  0.1672966025327074
  0.3323840726284947  0.1657076764931910  0.3332744453724599
  0.4982693432158519  0.3297476323748671  0.3309453790994928
  0.6599886176931787  0.5000266297958678  0.3399795025810418
  0.8326873253252786  0.6653280241724698  0.3347384237862120
 -0.0009150153386175  0.8325814790393308  0.3339946830766096
  0.4999518834527350  0.1669111942153387  0.5000337955274143
  0.6690166175552407  0.3298045907690914  0.5017192978612863
  0.8436054688277487  0.4987307915395869  0.5013411113410772
  0.0002759252251919  0.6666597512498199  0.5005728478268107
  0.6667005318304635  0.1657404746859894  0.6676040738143233
  0.8335894919855513  0.3334248679864662  0.6666062167405620
  0.0018421214031593  0.4996213661706903  0.6681486074593456
  0.8330187063009586  0.1660877614744320  0.8339494127815325
 -0.0001952914387779  0.3328321979870187  0.8339073010996489
 -0.0006405171443095  0.1660343801534827  0.0006116125710332
  0.1648455418061150  0.4994850493170789  0.1658949905835295
  0.3336587244551907  0.6652714310669047  0.1676456993704993
  0.4995277982122749  0.8314672319106319  0.1685714692804346
  0.6659890056029566 -0.0008593533935045  0.1674569058825353
  0.1656720645044708  0.3323966684603515  0.3332978116509572
  0.3296612084590153  0.4983093117728070  0.3309408437660014
  0.4999661129301595  0.6600002056673854  0.3399786771909581
  0.6652744088295146  0.8327404842234409  0.3347353004311080
  0.8325362459931637 -0.0008626299355200  0.3339906912806359
  0.1664546249986139  0.1664678499537661  0.5002303372657528
  0.3339415549290132  0.3339647167509673  0.4994510004959676
  0.6599466766420938  0.6599722402011390  0.5000493321328147
  0.8314240918915701  0.8314566388314606  0.5004725910254577
  0.9991576713520192 -0.0008151843293249  0.5004914604281221
  0.3332083802116140  0.1670942983792493  0.6667767088975483
  0.5005367563399163  0.3339822330836394  0.6660487303840840
  0.6690429277544476  0.4983281414860627  0.6703344405578794
  0.8323497552476473  0.6652708849128272  0.6663485408655578
 -0.0009678492231485  0.8328137468957716  0.6672282955771806
  0.4997495899439472  0.1664855299779310  0.8335229268545813
  0.6666865896132987  0.3324086051594989  0.8343078187627421
  0.8341112166315722  0.4994877793237935  0.8351390633811353
 -0.0007965485881709  0.6662609608106917  0.8340520806911365
  0.6662123804616904  0.1659887033742932  0.0008020272553958
  0.8327661794790481  0.3327946796975254  0.0009826341355702
 -0.0008658250845469  0.4995275523316020  0.0008539740480024
  0.1661616378550170  0.8325342930663545  0.1674929599993136
  0.3327566300034552 -0.0009515527328910  0.1671986911514321
  0.1663444990317617  0.6661607229982246  0.3338645382916832
  0.3336839684530281  0.8323592119894029  0.3347553133346813
  0.4994296191930396  0.0002802317078088  0.3333642360921149
  0.1669050006879046  0.4999628175573232  0.5000506464091792
  0.3297654398203392  0.6690517375616307  0.5016984410113005
  0.4987063452843900  0.8436177680973839  0.5013125507576780
  0.6666414752121284  0.0003026421130746  0.5005767903744540
  0.1670813688499432  0.3332245919254054  0.6667870773068274
  0.3339762704768602  0.5005645457861019  0.6660617564141303
  0.4983142191568859  0.6690704823788122  0.6703289022788740
  0.6652445673620750  0.8323642787571900  0.6663354568906453
  0.8328114093334551 -0.0009490090042809  0.6672413789423127
  0.1663039922182234  0.1663350317450082  0.8336711105964121
  0.3331812574946363  0.3332151889238185  0.8329114366249201
  0.4999490120068003  0.4999818542325853  0.8331245091010419
  0.6661424695195279  0.6661566292467679  0.8336892910912939
  0.8325051572823815  0.8325230158860885  0.8338366495698235
 -0.0006239571908654 -0.0006009743272057  0.8339586740959180
  0.3327802058808057  0.1661092970218230  0.0001681943996571
  0.4995461088007644  0.3318780724436955  0.9981580878473885
  0.6666160883576517  0.4994569158889421 -0.0002294252361656
  0.8325186771974972  0.6660256010348320  0.0009247911326497
 -0.0008183118354034  0.8327082108663773  0.0007863101908009
  0.1659614591931931 -0.0007946105231129  0.3337533809163315
  0.1649017811570473  0.8341214745341118  0.5005507141028597
  0.3318579845744944  0.0018301132332195  0.5003942706160343
  0.1657225066684889  0.6667235423999321  0.6675961435738592
  0.3334187360243315  0.8336140354213372  0.6665854235283108
  0.4995899110578179  0.0018552689807223  0.6681110217408767
  0.1664434135498681  0.4997853369763748  0.8335450723996751
  0.3323786309132857  0.6667368362268057  0.8343082404404680
  0.4994517286374424  0.8341405061334585  0.8351128045274105
  0.6662327093554447 -0.0007778454784416  0.8340248272475879
  0.1660600967677147  0.3328177224668185  0.0001643980827516
  0.3318307200317599  0.4996149135203353 -0.0018382266320722
  0.4994185541430725  0.6666586140944860 -0.0002649398866570
  0.6659950467664957  0.8325861119823413  0.0009126178156689
  0.8326798690809831 -0.0007749051196532  0.0007926119547341
  0.1661038947306853 -0.0001512489968695  0.6671820154964148
  0.1660576896429828  0.8330598492795277  0.8339366550460674
  0.3328042219594926 -0.0001441586596369  0.8338775283407540
  0.1659331947614952  0.6662728088023594  0.0008159581255806
  0.3327547847973559  0.8328257870321175  0.0009664870012146
  0.4994734108599696  0.9991843474373088  0.0008234673443642
  0.1660180105252561 -0.0006044219464614  0.0006009949800986
 
  0.00000000E+00  0.00000000E+00  0.00000000E+00
  0.00000000E+00  0.00000000E+00  0.00000000E+00
  0.00000000E+00  0.00000000E+00  0.00000000E+00
  0.00000000E+00  0.00000000E+00  0.00000000E+00
  0.00000000E+00  0.00000000E+00  0.00000000E+00
  0.00000000E+00  0.00000000E+00  0.00000000E+00
  0.00000000E+00  0.00000000E+00  0.00000000E+00
  0.00000000E+00  0.00000000E+00  0.00000000E+00
  0.00000000E+00  0.00000000E+00  0.00000000E+00
  0.00000000E+00  0.00000000E+00  0.00000000E+00
  0.00000000E+00  0.00000000E+00  0.00000000E+00
  0.00000000E+00  0.00000000E+00  0.00000000E+00
  0.00000000E+00  0.00000000E+00  0.00000000E+00
  0.00000000E+00  0.00000000E+00  0.00000000E+00
  0.00000000E+00  0.00000000E+00  0.00000000E+00
  0.00000000E+00  0.00000000E+00  0.00000000E+00
  0.00000000E+00  0.00000000E+00  0.00000000E+00
  0.00000000E+00  0.00000000E+00  0.00000000E+00
  0.00000000E+00  0.00000000E+00  0.00000000E+00
  0.00000000E+00  0.00000000E+00  0.00000000E+00
  0.00000000E+00  0.00000000E+00  0.00000000E+00
  0.00000000E+00  0.00000000E+00  0.00000000E+00
  0.00000000E+00  0.00000000E+00  0.00000000E+00
  0.00000000E+00  0.00000000E+00  0.00000000E+00
  0.00000000E+00  0.00000000E+00  0.00000000E+00
  0.00000000E+00  0.00000000E+00  0.00000000E+00
  0.00000000E+00  0.00000000E+00  0.00000000E+00
  0.00000000E+00  0.00000000E+00  0.00000000E+00
  0.00000000E+00  0.00000000E+00  0.00000000E+00
  0.00000000E+00  0.00000000E+00  0.00000000E+00
  0.00000000E+00  0.00000000E+00  0.00000000E+00
  0.00000000E+00  0.00000000E+00  0.00000000E+00
  0.00000000E+00  0.00000000E+00  0.00000000E+00
  0.00000000E+00  0.00000000E+00  0.00000000E+00
  0.00000000E+00  0.00000000E+00  0.00000000E+00
  0.00000000E+00  0.00000000E+00  0.00000000E+00
  0.00000000E+00  0.00000000E+00  0.00000000E+00
  0.00000000E+00  0.00000000E+00  0.00000000E+00
  0.00000000E+00  0.00000000E+00  0.00000000E+00
  0.00000000E+00  0.00000000E+00  0.00000000E+00
  0.00000000E+00  0.00000000E+00  0.00000000E+00
  0.00000000E+00  0.00000000E+00  0.00000000E+00
  0.00000000E+00  0.00000000E+00  0.00000000E+00
  0.00000000E+00  0.00000000E+00  0.00000000E+00
  0.00000000E+00  0.00000000E+00  0.00000000E+00
  0.00000000E+00  0.00000000E+00  0.00000000E+00
  0.00000000E+00  0.00000000E+00  0.00000000E+00
  0.00000000E+00  0.00000000E+00  0.00000000E+00
  0.00000000E+00  0.00000000E+00  0.00000000E+00
  0.00000000E+00  0.00000000E+00  0.00000000E+00
  0.00000000E+00  0.00000000E+00  0.00000000E+00
  0.00000000E+00  0.00000000E+00  0.00000000E+00
  0.00000000E+00  0.00000000E+00  0.00000000E+00
  0.00000000E+00  0.00000000E+00  0.00000000E+00
  0.00000000E+00  0.00000000E+00  0.00000000E+00
  0.00000000E+00  0.00000000E+00  0.00000000E+00
  0.00000000E+00  0.00000000E+00  0.00000000E+00
  0.00000000E+00  0.00000000E+00  0.00000000E+00
  0.00000000E+00  0.00000000E+00  0.00000000E+00
  0.00000000E+00  0.00000000E+00  0.00000000E+00
  0.00000000E+00  0.00000000E+00  0.00000000E+00
  0.00000000E+00  0.00000000E+00  0.00000000E+00
  0.00000000E+00  0.00000000E+00  0.00000000E+00
  0.00000000E+00  0.00000000E+00  0.00000000E+00
  0.00000000E+00  0.00000000E+00  0.00000000E+00
  0.00000000E+00  0.00000000E+00  0.00000000E+00
  0.00000000E+00  0.00000000E+00  0.00000000E+00
  0.00000000E+00  0.00000000E+00  0.00000000E+00
  0.00000000E+00  0.00000000E+00  0.00000000E+00
  0.00000000E+00  0.00000000E+00  0.00000000E+00
  0.00000000E+00  0.00000000E+00  0.00000000E+00
  0.00000000E+00  0.00000000E+00  0.00000000E+00
  0.00000000E+00  0.00000000E+00  0.00000000E+00
  0.00000000E+00  0.00000000E+00  0.00000000E+00
  0.00000000E+00  0.00000000E+00  0.00000000E+00
  0.00000000E+00  0.00000000E+00  0.00000000E+00
  0.00000000E+00  0.00000000E+00  0.00000000E+00
  0.00000000E+00  0.00000000E+00  0.00000000E+00
  0.00000000E+00  0.00000000E+00  0.00000000E+00
  0.00000000E+00  0.00000000E+00  0.00000000E+00
  0.00000000E+00  0.00000000E+00  0.00000000E+00
  0.00000000E+00  0.00000000E+00  0.00000000E+00
  0.00000000E+00  0.00000000E+00  0.00000000E+00
  0.00000000E+00  0.00000000E+00  0.00000000E+00
  0.00000000E+00  0.00000000E+00  0.00000000E+00
  0.00000000E+00  0.00000000E+00  0.00000000E+00
  0.00000000E+00  0.00000000E+00  0.00000000E+00
  0.00000000E+00  0.00000000E+00  0.00000000E+00
  0.00000000E+00  0.00000000E+00  0.00000000E+00
  0.00000000E+00  0.00000000E+00  0.00000000E+00
  0.00000000E+00  0.00000000E+00  0.00000000E+00
  0.00000000E+00  0.00000000E+00  0.00000000E+00
  0.00000000E+00  0.00000000E+00  0.00000000E+00
  0.00000000E+00  0.00000000E+00  0.00000000E+00
  0.00000000E+00  0.00000000E+00  0.00000000E+00
  0.00000000E+00  0.00000000E+00  0.00000000E+00
  0.00000000E+00  0.00000000E+00  0.00000000E+00
  0.00000000E+00  0.00000000E+00  0.00000000E+00
  0.00000000E+00  0.00000000E+00  0.00000000E+00
  0.00000000E+00  0.00000000E+00  0.00000000E+00
  0.00000000E+00  0.00000000E+00  0.00000000E+00
  0.00000000E+00  0.00000000E+00  0.00000000E+00
  0.00000000E+00  0.00000000E+00  0.00000000E+00
  0.00000000E+00  0.00000000E+00  0.00000000E+00
  0.00000000E+00  0.00000000E+00  0.00000000E+00
  0.00000000E+00  0.00000000E+00  0.00000000E+00
  0.00000000E+00  0.00000000E+00  0.00000000E+00
  0.00000000E+00  0.00000000E+00  0.00000000E+00
  0.00000000E+00  0.00000000E+00  0.00000000E+00
  0.00000000E+00  0.00000000E+00  0.00000000E+00
  0.00000000E+00  0.00000000E+00  0.00000000E+00
  0.00000000E+00  0.00000000E+00  0.00000000E+00
  0.00000000E+00  0.00000000E+00  0.00000000E+00
  0.00000000E+00  0.00000000E+00  0.00000000E+00
  0.00000000E+00  0.00000000E+00  0.00000000E+00
  0.00000000E+00  0.00000000E+00  0.00000000E+00
  0.00000000E+00  0.00000000E+00  0.00000000E+00
  0.00000000E+00  0.00000000E+00  0.00000000E+00
  0.00000000E+00  0.00000000E+00  0.00000000E+00
  0.00000000E+00  0.00000000E+00  0.00000000E+00
  0.00000000E+00  0.00000000E+00  0.00000000E+00
  0.00000000E+00  0.00000000E+00  0.00000000E+00
  0.00000000E+00  0.00000000E+00  0.00000000E+00
  0.00000000E+00  0.00000000E+00  0.00000000E+00
  0.00000000E+00  0.00000000E+00  0.00000000E+00
  0.00000000E+00  0.00000000E+00  0.00000000E+00
  0.00000000E+00  0.00000000E+00  0.00000000E+00
  0.00000000E+00  0.00000000E+00  0.00000000E+00
  0.00000000E+00  0.00000000E+00  0.00000000E+00
  0.00000000E+00  0.00000000E+00  0.00000000E+00
  0.00000000E+00  0.00000000E+00  0.00000000E+00
  0.00000000E+00  0.00000000E+00  0.00000000E+00
  0.00000000E+00  0.00000000E+00  0.00000000E+00
  0.00000000E+00  0.00000000E+00  0.00000000E+00
  0.00000000E+00  0.00000000E+00  0.00000000E+00
  0.00000000E+00  0.00000000E+00  0.00000000E+00
  0.00000000E+00  0.00000000E+00  0.00000000E+00
  0.00000000E+00  0.00000000E+00  0.00000000E+00
  0.00000000E+00  0.00000000E+00  0.00000000E+00
  0.00000000E+00  0.00000000E+00  0.00000000E+00
  0.00000000E+00  0.00000000E+00  0.00000000E+00
  0.00000000E+00  0.00000000E+00  0.00000000E+00
  0.00000000E+00  0.00000000E+00  0.00000000E+00
  0.00000000E+00  0.00000000E+00  0.00000000E+00
  0.00000000E+00  0.00000000E+00  0.00000000E+00
  0.00000000E+00  0.00000000E+00  0.00000000E+00
  0.00000000E+00  0.00000000E+00  0.00000000E+00
  0.00000000E+00  0.00000000E+00  0.00000000E+00
  0.00000000E+00  0.00000000E+00  0.00000000E+00
  0.00000000E+00  0.00000000E+00  0.00000000E+00
  0.00000000E+00  0.00000000E+00  0.00000000E+00
  0.00000000E+00  0.00000000E+00  0.00000000E+00
  0.00000000E+00  0.00000000E+00  0.00000000E+00
  0.00000000E+00  0.00000000E+00  0.00000000E+00
  0.00000000E+00  0.00000000E+00  0.00000000E+00
  0.00000000E+00  0.00000000E+00  0.00000000E+00
  0.00000000E+00  0.00000000E+00  0.00000000E+00
  0.00000000E+00  0.00000000E+00  0.00000000E+00
  0.00000000E+00  0.00000000E+00  0.00000000E+00
  0.00000000E+00  0.00000000E+00  0.00000000E+00
  0.00000000E+00  0.00000000E+00  0.00000000E+00
  0.00000000E+00  0.00000000E+00  0.00000000E+00
  0.00000000E+00  0.00000000E+00  0.00000000E+00
  0.00000000E+00  0.00000000E+00  0.00000000E+00
  0.00000000E+00  0.00000000E+00  0.00000000E+00
  0.00000000E+00  0.00000000E+00  0.00000000E+00
  0.00000000E+00  0.00000000E+00  0.00000000E+00
  0.00000000E+00  0.00000000E+00  0.00000000E+00
  0.00000000E+00  0.00000000E+00  0.00000000E+00
  0.00000000E+00  0.00000000E+00  0.00000000E+00
  0.00000000E+00  0.00000000E+00  0.00000000E+00
  0.00000000E+00  0.00000000E+00  0.00000000E+00
  0.00000000E+00  0.00000000E+00  0.00000000E+00
  0.00000000E+00  0.00000000E+00  0.00000000E+00
  0.00000000E+00  0.00000000E+00  0.00000000E+00
  0.00000000E+00  0.00000000E+00  0.00000000E+00
  0.00000000E+00  0.00000000E+00  0.00000000E+00
  0.00000000E+00  0.00000000E+00  0.00000000E+00
  0.00000000E+00  0.00000000E+00  0.00000000E+00
  0.00000000E+00  0.00000000E+00  0.00000000E+00
  0.00000000E+00  0.00000000E+00  0.00000000E+00
  0.00000000E+00  0.00000000E+00  0.00000000E+00
  0.00000000E+00  0.00000000E+00  0.00000000E+00
  0.00000000E+00  0.00000000E+00  0.00000000E+00
  0.00000000E+00  0.00000000E+00  0.00000000E+00
  0.00000000E+00  0.00000000E+00  0.00000000E+00
  0.00000000E+00  0.00000000E+00  0.00000000E+00
  0.00000000E+00  0.00000000E+00  0.00000000E+00
  0.00000000E+00  0.00000000E+00  0.00000000E+00
  0.00000000E+00  0.00000000E+00  0.00000000E+00
  0.00000000E+00  0.00000000E+00  0.00000000E+00
  0.00000000E+00  0.00000000E+00  0.00000000E+00
  0.00000000E+00  0.00000000E+00  0.00000000E+00
  0.00000000E+00  0.00000000E+00  0.00000000E+00
  0.00000000E+00  0.00000000E+00  0.00000000E+00
  0.00000000E+00  0.00000000E+00  0.00000000E+00
  0.00000000E+00  0.00000000E+00  0.00000000E+00
  0.00000000E+00  0.00000000E+00  0.00000000E+00
  0.00000000E+00  0.00000000E+00  0.00000000E+00
  0.00000000E+00  0.00000000E+00  0.00000000E+00
  0.00000000E+00  0.00000000E+00  0.00000000E+00
  0.00000000E+00  0.00000000E+00  0.00000000E+00
  0.00000000E+00  0.00000000E+00  0.00000000E+00
  0.00000000E+00  0.00000000E+00  0.00000000E+00
  0.00000000E+00  0.00000000E+00  0.00000000E+00
  0.00000000E+00  0.00000000E+00  0.00000000E+00
  0.00000000E+00  0.00000000E+00  0.00000000E+00
  0.00000000E+00  0.00000000E+00  0.00000000E+00
  0.00000000E+00  0.00000000E+00  0.00000000E+00
  0.00000000E+00  0.00000000E+00  0.00000000E+00
  0.00000000E+00  0.00000000E+00  0.00000000E+00
  0.00000000E+00  0.00000000E+00  0.00000000E+00
  0.00000000E+00  0.00000000E+00  0.00000000E+00
  0.00000000E+00  0.00000000E+00  0.00000000E+00
  0.00000000E+00  0.00000000E+00  0.00000000E+00
  0.00000000E+00  0.00000000E+00  0.00000000E+00
