KPOINTS from doped, with reciprocal_density = 995/Å⁻³
0
Gamma
9 9 9
