Mg109 O107                              
   1.00000000000000     
    12.5998379999999983    0.0000000000000004    0.0000000000000004
     0.0000000000000004   12.5998379999999983   -0.0000000000000004
    -0.0000000000000004   -0.0000000000000004   12.5998379999999983
   Mg   O 
   109   107
Direct
  0.6681362441556069  0.0008397772060223  0.9987756292752489
  0.8348048782906254  0.1671506237600054  0.9987323505750195
  0.8348299997357478  0.0007988492616579  0.1650838980533247
  0.3338886359066240  0.0009540700318049  0.9989174929074762
  0.5010849600030348  0.1663220171380131  0.0003509594526455
  0.6686219025486728  0.3336078821711609 -0.0001571869967155
  0.8351694147742427  0.5006873212878219  0.9989482036026582
  0.5011007028240662  0.0023904304798692  0.1642725371206192
  0.6684456914006385  0.1666651045226093  0.1646306870497770
  0.8356290841162638  0.3333503814842005  0.1646139327499406
  0.6686035064551830  0.0018496682164393  0.3315503658457778
  0.8356226055927772  0.1666079940633780  0.3313053820125044
  0.8351771417174108  0.0009489542612397  0.4986151523587063
  0.0010530030831594  0.0008937331993242  0.9988448683514225
  0.1674922952811832  0.1672870599664846  0.9992433202138071
  0.3337530683226465  0.3335556461931932  0.0007279363455108
  0.5008755294650002  0.5006276744015045  0.0032924997679037
  0.6680752782939432  0.6677767844482115 -0.0002771406220489
  0.8346608878648338  0.8344827506299417  0.9987305437876367
  0.1675304654457321  0.0012819893789140  0.1652507572086477
  0.3341673903322991  0.1677357329192065  0.1656913372171702
  0.5011255081469272  0.3335517018346621  0.1657492339116281
  0.6691942214978458  0.5005927254533864  0.1642702818031752
  0.8349418132158803  0.6682222397716152  0.1646376917032070
  0.3337786109918257  0.0027730004472729  0.3315361589315884
  0.5011488676289257  0.1677486268396443  0.3315348578545177
  0.6685601600601909  0.3300999771870936  0.3280388846795383
  0.8425387553766831  0.5009982774783639  0.3255731161812379
  0.5008915010784105  0.0053268179613818  0.4986315097823183
  0.6692371419605919  0.1662680369406346  0.4985586412606443
  0.8425539497583719  0.3275863925256493  0.4989670823714928
  0.6680819368541049  0.0017410686410556  0.6657322402173974
  0.8349322636357890  0.1666530831740165  0.6661762261895847
  0.8346441349386065  0.0007690995844136  0.8324188243942989
  0.0011769846328342  0.3336500763471349  0.9988812369758221
  0.1665062396353880  0.5008891627818378  0.0004425957747320
  0.3338124202850740  0.6684178836572071 -0.0001137933262550
  0.5009210056009428  0.8348815254328320 -0.0010291305132407
  0.0015062647544578  0.1672595254662117  0.1652115306608912
  0.1679821790535368  0.3339083324751887  0.1657116015341947
  0.3338121312800887  0.5008733984300775  0.1657933505069597
  0.5008639655166054  0.6688899645690285  0.1642932144175665
  0.6684227921105894  0.8346711536913185  0.1646617473005625
  0.0011976901306127  0.0009241038650780  0.3315978878750592
  0.1680087446790241  0.1677388648769063  0.3318697933609818
  0.3345873997334818  0.3343095889855303  0.3322948950185838
  0.5011084287724421  0.5008438211674524  0.3289048734556524
  0.6679902089610603  0.6676821392257587  0.3305244894576820
  0.8346836938453004  0.8344252644592014  0.3315362631912651
  0.1665057395619622  0.0024795394404513  0.4988653130077191
  0.3338220741023825  0.1678100414102978  0.4988834702231538
  0.5011364343207735  0.3308878767415948  0.4988434465966733
  0.7007601403624104  0.4820623631229174  0.4800380375015073
  0.8381727195247800  0.6682227906864414  0.4983477163578998
  0.3338071431701634  0.0019204396500876  0.6663606350502312
  0.5008466598651875  0.1663229961206145  0.6668975337050094
  0.6680174008250687  0.3325263763562668  0.6656721140086280
  0.8381294523385459  0.5003635771072247  0.6662212912830709
  0.5008700963841296  0.0009736826124394  0.8328675463593563
  0.6683858649558060  0.1667071625150695  0.8326357953109497
  0.8346643298133781  0.3335872021543933  0.8324028579941611
  0.0010949569117297  0.6680403458255033  0.9987943493826931
  0.1673891709731951  0.8346615057990093  0.9987820827366396
  0.0027225867569192  0.5009001526862350  0.1642342513187468
  0.1669846517796266  0.6682649289033487  0.1646894472572354
  0.3336619164673620  0.8353609881479924  0.1646806698089331
  0.0030357522557553  0.3334766907002818  0.3314762842253369
  0.1680523221406601  0.5008939499565095  0.3315295233314085
  0.3303898796670313  0.6682675070938000  0.3281434487437098
  0.5012297235151302  0.8420913494949855  0.3257151223011800
  0.0027350426605598  0.1662028406314722  0.4988544174782802
  0.1680513489310866  0.3335234269598281  0.4988593160496125
  0.3310827003575322  0.5008965740769498  0.4989214144398055
  0.4823312424745573  0.7000394296663149  0.4804268534054141
  0.6685093146180494  0.8377470462596923  0.4983510356880945
  0.0010616912121529  0.0008202305578266  0.6659895837266432
  0.1669467871045234  0.1667217031367261  0.6662598685449793
  0.3303575471791953  0.3301906404539550  0.6662672942745783
  0.4822861381185425  0.4824884302298046  0.6980221368165405
  0.6738928651005455  0.6735256329475610  0.6714729901143682
  0.8357496038411144  0.8354396891984565  0.6656615173585737
  0.1673644209096633  0.0008104847198022  0.8326237799741268
  0.3336130757786450  0.1667124915736415  0.8333268745148299
  0.5012313946382891  0.3277850499410914  0.8400618505410703
  0.6685060465188818  0.5004060809095747  0.8356987349888143
  0.8357456198044332  0.6677203184768662  0.8334288686223366
  0.0010487624192550  0.8346759757544951  0.1651137857862128
  0.0021685984770575  0.6684316789097373  0.3315317505492267
  0.1669597004169012  0.8353855782946794  0.3313552201603931
  0.0057140505382565  0.5005967893006544  0.4985932518212258
  0.1665192109724329  0.6689625457814581  0.4985713485122997
  0.3279304048437016  0.8422024924739008  0.4990065076983896
  0.0021692726618331  0.3335490236467177  0.6663817372166756
  0.1664742481804168  0.5005905771200305  0.6669281667332936
  0.3326380504537376  0.6677422003123197  0.6657302336637242
  0.5006567460882420  0.8378003863949571  0.6662183321883502
  0.0009830849769083  0.1671422216776397  0.8326329915202064
  0.1668985929795890  0.3333914830838564  0.8333564260142881
  0.3278785317809864  0.5010296833657730  0.8401525860445019
  0.5006529096912741  0.6682120468249207  0.8358066676914931
  0.6679562639985562  0.8354649320216938  0.8334096474471516
  0.0012626566962664  0.8349382244479202  0.4986118792844499
  0.0020206235668003  0.6678148847258507  0.6657724189178762
  0.1668949720990415  0.8347021697999827  0.6661539484082862
  0.0012162034805487  0.5006639087918453  0.8329223284203735
  0.1668845874162752  0.6681926842383232  0.8326759588451227
  0.3338113299496782  0.8344276370457339  0.8324120399933327
  0.0010212761295235  0.8344750157783841  0.8324219130042390
  0.5580472000851522  0.5572024361295880  0.5552187704739410
  0.8347562533186674  0.1675195186168956  0.1654131422855444
  0.0016181932090488  0.3342707621371307  0.1654790794802327
  0.0016257992446312  0.1675474550451310  0.3321862426614381
  0.5013987108430669  0.1680230148876456  0.1659564076261080
  0.6683785826438371  0.3338166495008358  0.1652242789049158
  0.8357617067167187  0.5008413450013018  0.1643699949985524
  0.0010267726766824  0.6677148129824449  0.1653268216509289
  0.6683844707500859  0.1672863670646903  0.3317410882270955
  0.8354526011685284  0.3347646001289954  0.3326935463876352
  0.0038082826849648  0.5009840680592268  0.3311593213192897
  0.8357996392171289  0.1663815208757583  0.4987567629400115
  0.0038406327686025  0.3331584673982784  0.4989046802382857
  0.0010020164748990  0.1673827268126049  0.6656150186951223
  0.1680437224937566  0.1677983557892047  0.1656961114037580
  0.3348700646880916  0.3346338422038514  0.1665975548037866
  0.5015602545156446  0.5013019956199699  0.1666348986978586
  0.6677881998770480  0.6675339756809714  0.1659415199511284
  0.8342516446006809  0.8340400652572253  0.1655238608406453
  0.0011350925231841  0.0009147808794081  0.1653892765768584
  0.3348928844853902  0.1686626198595248  0.3325672790832568
  0.5021052003212643  0.3352600286907202  0.3332311825313525
  0.6705681601256361  0.4995324109288667  0.3292522825313343
  0.8341814521591495  0.6666264455470227  0.3329300786732485
  0.0008544115574696  0.8343279868566045  0.3321098174489622
  0.5015770183381728  0.1686807742708739  0.4992532929509881
  0.6706304036511109  0.3312677893161217  0.4975133673437633
  0.8460854745629246  0.4998952252566752  0.4978475977231760
  0.0022676449426937  0.6680910975352004  0.4987099263685544
  0.6677939303678281  0.1679804878511213  0.6654460299210956
  0.8341762104188316  0.3349794287906377  0.6645625467360444
  0.0022372547406129  0.5007769359966436  0.6660139750613241
  0.8342207642818317  0.1676091489398507  0.8319509210611634
  0.0008247489312810  0.3342087832624994  0.8322355123963512
  0.0011110225076431  0.1674759700518031  0.9987927121969435
  0.1683146073957340  0.5011794932755528  0.1660101287354729
  0.3341354256999672  0.6681020388190230  0.1652836212523894
  0.5011108663446351  0.8354382677822220  0.1644338638228771
  0.6678691818918469  0.0007282188709590  0.1653425705317395
  0.1689108142308018  0.3346191709187888  0.3325535282722918
  0.3355483408139177  0.5018293827634370  0.3332862906665073
  0.4998080250532281  0.6701923858597959  0.3294305911675345
  0.6668816434150420  0.8338243482560845  0.3329971011863840
  0.8345388255173039  0.0005513886898165  0.3320979109010723
  0.1683162322255669  0.1680499393098223  0.4991014509658490
  0.3355567530278017  0.3353160550628135  0.4997869033105136
  0.6611944314903038  0.6606636572669007  0.4990168200383452
  0.8331367900636792  0.8328168797233851  0.4987808656329031
  0.0009755901116670  0.0007019041217084  0.4988327761484186
  0.3341248600875166  0.1673544716417339  0.6660413140285218
  0.4998267335290079  0.3314771309828772  0.6682024290664758
  0.6612415806133830  0.5010822330723615  0.6587034899512539
  0.8344286246238758  0.6665948538353792  0.6645183115903770
  0.0008775004427086  0.8340513442398807  0.6653410009081545
  0.5010983017931198  0.1664941561530687  0.8333734938393251
  0.6668881597473307  0.3350688805391716  0.8317796256679024
  0.8331254113700923  0.5008817008366765  0.8307829884297927
  0.0008672281474088  0.6674309258117712  0.8319630051589932
  0.6678638596128436  0.1674277912908708  0.9986517560554852
  0.8345460454457401  0.3342104999681907  0.9985021033093341
  0.0009692706613686  0.5009309153598959  0.9986670977960780
  0.1678155458421506  0.8345781780767687  0.1654786623445706
  0.3345363111115709  0.0013625852107241  0.1655249244512866
  0.1675876875658990  0.6681093655362894  0.3317871035143091
  0.3350619004778638  0.8351216046499149  0.3327830095072321
  0.5012366409243549  0.0034566438283591  0.3312531069339097
  0.1689036518407589  0.5012789180397458  0.4992293921825531
  0.3314469283103514  0.6702021761385326  0.4976144541213116
  0.5001867308903366  0.8455701712268395  0.4979581208036543
  0.6683507127743683  0.0019451385633482  0.4987440184545797
  0.1675470474589361  0.3338486758745752  0.6660267052447849
  0.3313887095699363  0.4996251936792270  0.6682195181551889
  0.5013412434042263  0.6604745525079939  0.6585655919717238
  0.6668427258690304  0.8340056850902158  0.6644788918048806
  0.8342577815591595  0.0005910312570954  0.6653325067967196
  0.1677684347395583  0.1675686689568829  0.8324825938284681
  0.3350186249325066  0.3348550812897353  0.8330750821163819
  0.5001950974445053  0.4999922513510063  0.8435264347847965
  0.6668712125435600  0.6665864303105918  0.8319741259761635
  0.8338683294644820  0.8336416001016674  0.8315525315252478
  0.0009179353719290  0.0007102685274439  0.8321405356601888
  0.3345238430383697  0.1676065033119487  0.9992783990979116
  0.5012271106148665  0.3332818862989704  0.0014178173537016
  0.6683416867229827  0.5008274950416527 -0.0001246050080730
  0.8342591129568504  0.6674236399629153  0.9985496549991866
  0.0009284372563296  0.8342398431938747  0.9986337495715154
  0.1678454674501004  0.0013830967834532  0.3322037318814518
  0.1667044020675810  0.8355090251629538  0.4987670876662629
  0.3334872398522921  0.0035459112549504  0.4989631027819746
  0.1681273021739284  0.6675544969683684  0.6654519218597080
  0.3352874328051844  0.8338405500909999  0.6645769987564265
  0.5010775427025962  0.0019550732528847  0.6659952074043399
  0.1666684375996617  0.5008715029650038  0.8334423929611240
  0.3352763012860338  0.6666556230102448  0.8317755215771294
  0.5011350410990653  0.8327786722554464  0.8307298087114088
  0.6676225831841799  0.0005967348869786  0.8318912208804359
  0.1678158343635518  0.3342928626804217  0.9993185179984030
  0.3334746808616727  0.5010420537960888  0.0014673693729959
  0.5010812092983398  0.6680473511376578 -0.0000772648852799
  0.6676347754525748  0.8339840321982996  0.9985277515062069
  0.8343257304750863  0.0007090585358057  0.9986132001297277
  0.1676796927014746  0.0007671760301305  0.6656102282491686
  0.1678621995505247  0.8340199098688560  0.8319602685156345
  0.3344501429075386  0.0005663656936113  0.8322096843336337
  0.1676960749656263  0.6677118934276089  0.9987015842620569
  0.3344804534250356  0.8343170367101641  0.9985253045872969
  0.5011388401623291  0.0007006808214609  0.9986168940604956
  0.1677227795837796  0.0009271947066523  0.9988294119841341
 
  0.00000000E+00  0.00000000E+00  0.00000000E+00
  0.00000000E+00  0.00000000E+00  0.00000000E+00
  0.00000000E+00  0.00000000E+00  0.00000000E+00
  0.00000000E+00  0.00000000E+00  0.00000000E+00
  0.00000000E+00  0.00000000E+00  0.00000000E+00
  0.00000000E+00  0.00000000E+00  0.00000000E+00
  0.00000000E+00  0.00000000E+00  0.00000000E+00
  0.00000000E+00  0.00000000E+00  0.00000000E+00
  0.00000000E+00  0.00000000E+00  0.00000000E+00
  0.00000000E+00  0.00000000E+00  0.00000000E+00
  0.00000000E+00  0.00000000E+00  0.00000000E+00
  0.00000000E+00  0.00000000E+00  0.00000000E+00
  0.00000000E+00  0.00000000E+00  0.00000000E+00
  0.00000000E+00  0.00000000E+00  0.00000000E+00
  0.00000000E+00  0.00000000E+00  0.00000000E+00
  0.00000000E+00  0.00000000E+00  0.00000000E+00
  0.00000000E+00  0.00000000E+00  0.00000000E+00
  0.00000000E+00  0.00000000E+00  0.00000000E+00
  0.00000000E+00  0.00000000E+00  0.00000000E+00
  0.00000000E+00  0.00000000E+00  0.00000000E+00
  0.00000000E+00  0.00000000E+00  0.00000000E+00
  0.00000000E+00  0.00000000E+00  0.00000000E+00
  0.00000000E+00  0.00000000E+00  0.00000000E+00
  0.00000000E+00  0.00000000E+00  0.00000000E+00
  0.00000000E+00  0.00000000E+00  0.00000000E+00
  0.00000000E+00  0.00000000E+00  0.00000000E+00
  0.00000000E+00  0.00000000E+00  0.00000000E+00
  0.00000000E+00  0.00000000E+00  0.00000000E+00
  0.00000000E+00  0.00000000E+00  0.00000000E+00
  0.00000000E+00  0.00000000E+00  0.00000000E+00
  0.00000000E+00  0.00000000E+00  0.00000000E+00
  0.00000000E+00  0.00000000E+00  0.00000000E+00
  0.00000000E+00  0.00000000E+00  0.00000000E+00
  0.00000000E+00  0.00000000E+00  0.00000000E+00
  0.00000000E+00  0.00000000E+00  0.00000000E+00
  0.00000000E+00  0.00000000E+00  0.00000000E+00
  0.00000000E+00  0.00000000E+00  0.00000000E+00
  0.00000000E+00  0.00000000E+00  0.00000000E+00
  0.00000000E+00  0.00000000E+00  0.00000000E+00
  0.00000000E+00  0.00000000E+00  0.00000000E+00
  0.00000000E+00  0.00000000E+00  0.00000000E+00
  0.00000000E+00  0.00000000E+00  0.00000000E+00
  0.00000000E+00  0.00000000E+00  0.00000000E+00
  0.00000000E+00  0.00000000E+00  0.00000000E+00
  0.00000000E+00  0.00000000E+00  0.00000000E+00
  0.00000000E+00  0.00000000E+00  0.00000000E+00
  0.00000000E+00  0.00000000E+00  0.00000000E+00
  0.00000000E+00  0.00000000E+00  0.00000000E+00
  0.00000000E+00  0.00000000E+00  0.00000000E+00
  0.00000000E+00  0.00000000E+00  0.00000000E+00
  0.00000000E+00  0.00000000E+00  0.00000000E+00
  0.00000000E+00  0.00000000E+00  0.00000000E+00
  0.00000000E+00  0.00000000E+00  0.00000000E+00
  0.00000000E+00  0.00000000E+00  0.00000000E+00
  0.00000000E+00  0.00000000E+00  0.00000000E+00
  0.00000000E+00  0.00000000E+00  0.00000000E+00
  0.00000000E+00  0.00000000E+00  0.00000000E+00
  0.00000000E+00  0.00000000E+00  0.00000000E+00
  0.00000000E+00  0.00000000E+00  0.00000000E+00
  0.00000000E+00  0.00000000E+00  0.00000000E+00
  0.00000000E+00  0.00000000E+00  0.00000000E+00
  0.00000000E+00  0.00000000E+00  0.00000000E+00
  0.00000000E+00  0.00000000E+00  0.00000000E+00
  0.00000000E+00  0.00000000E+00  0.00000000E+00
  0.00000000E+00  0.00000000E+00  0.00000000E+00
  0.00000000E+00  0.00000000E+00  0.00000000E+00
  0.00000000E+00  0.00000000E+00  0.00000000E+00
  0.00000000E+00  0.00000000E+00  0.00000000E+00
  0.00000000E+00  0.00000000E+00  0.00000000E+00
  0.00000000E+00  0.00000000E+00  0.00000000E+00
  0.00000000E+00  0.00000000E+00  0.00000000E+00
  0.00000000E+00  0.00000000E+00  0.00000000E+00
  0.00000000E+00  0.00000000E+00  0.00000000E+00
  0.00000000E+00  0.00000000E+00  0.00000000E+00
  0.00000000E+00  0.00000000E+00  0.00000000E+00
  0.00000000E+00  0.00000000E+00  0.00000000E+00
  0.00000000E+00  0.00000000E+00  0.00000000E+00
  0.00000000E+00  0.00000000E+00  0.00000000E+00
  0.00000000E+00  0.00000000E+00  0.00000000E+00
  0.00000000E+00  0.00000000E+00  0.00000000E+00
  0.00000000E+00  0.00000000E+00  0.00000000E+00
  0.00000000E+00  0.00000000E+00  0.00000000E+00
  0.00000000E+00  0.00000000E+00  0.00000000E+00
  0.00000000E+00  0.00000000E+00  0.00000000E+00
  0.00000000E+00  0.00000000E+00  0.00000000E+00
  0.00000000E+00  0.00000000E+00  0.00000000E+00
  0.00000000E+00  0.00000000E+00  0.00000000E+00
  0.00000000E+00  0.00000000E+00  0.00000000E+00
  0.00000000E+00  0.00000000E+00  0.00000000E+00
  0.00000000E+00  0.00000000E+00  0.00000000E+00
  0.00000000E+00  0.00000000E+00  0.00000000E+00
  0.00000000E+00  0.00000000E+00  0.00000000E+00
  0.00000000E+00  0.00000000E+00  0.00000000E+00
  0.00000000E+00  0.00000000E+00  0.00000000E+00
  0.00000000E+00  0.00000000E+00  0.00000000E+00
  0.00000000E+00  0.00000000E+00  0.00000000E+00
  0.00000000E+00  0.00000000E+00  0.00000000E+00
  0.00000000E+00  0.00000000E+00  0.00000000E+00
  0.00000000E+00  0.00000000E+00  0.00000000E+00
  0.00000000E+00  0.00000000E+00  0.00000000E+00
  0.00000000E+00  0.00000000E+00  0.00000000E+00
  0.00000000E+00  0.00000000E+00  0.00000000E+00
  0.00000000E+00  0.00000000E+00  0.00000000E+00
  0.00000000E+00  0.00000000E+00  0.00000000E+00
  0.00000000E+00  0.00000000E+00  0.00000000E+00
  0.00000000E+00  0.00000000E+00  0.00000000E+00
  0.00000000E+00  0.00000000E+00  0.00000000E+00
  0.00000000E+00  0.00000000E+00  0.00000000E+00
  0.00000000E+00  0.00000000E+00  0.00000000E+00
  0.00000000E+00  0.00000000E+00  0.00000000E+00
  0.00000000E+00  0.00000000E+00  0.00000000E+00
  0.00000000E+00  0.00000000E+00  0.00000000E+00
  0.00000000E+00  0.00000000E+00  0.00000000E+00
  0.00000000E+00  0.00000000E+00  0.00000000E+00
  0.00000000E+00  0.00000000E+00  0.00000000E+00
  0.00000000E+00  0.00000000E+00  0.00000000E+00
  0.00000000E+00  0.00000000E+00  0.00000000E+00
  0.00000000E+00  0.00000000E+00  0.00000000E+00
  0.00000000E+00  0.00000000E+00  0.00000000E+00
  0.00000000E+00  0.00000000E+00  0.00000000E+00
  0.00000000E+00  0.00000000E+00  0.00000000E+00
  0.00000000E+00  0.00000000E+00  0.00000000E+00
  0.00000000E+00  0.00000000E+00  0.00000000E+00
  0.00000000E+00  0.00000000E+00  0.00000000E+00
  0.00000000E+00  0.00000000E+00  0.00000000E+00
  0.00000000E+00  0.00000000E+00  0.00000000E+00
  0.00000000E+00  0.00000000E+00  0.00000000E+00
  0.00000000E+00  0.00000000E+00  0.00000000E+00
  0.00000000E+00  0.00000000E+00  0.00000000E+00
  0.00000000E+00  0.00000000E+00  0.00000000E+00
  0.00000000E+00  0.00000000E+00  0.00000000E+00
  0.00000000E+00  0.00000000E+00  0.00000000E+00
  0.00000000E+00  0.00000000E+00  0.00000000E+00
  0.00000000E+00  0.00000000E+00  0.00000000E+00
  0.00000000E+00  0.00000000E+00  0.00000000E+00
  0.00000000E+00  0.00000000E+00  0.00000000E+00
  0.00000000E+00  0.00000000E+00  0.00000000E+00
  0.00000000E+00  0.00000000E+00  0.00000000E+00
  0.00000000E+00  0.00000000E+00  0.00000000E+00
  0.00000000E+00  0.00000000E+00  0.00000000E+00
  0.00000000E+00  0.00000000E+00  0.00000000E+00
  0.00000000E+00  0.00000000E+00  0.00000000E+00
  0.00000000E+00  0.00000000E+00  0.00000000E+00
  0.00000000E+00  0.00000000E+00  0.00000000E+00
  0.00000000E+00  0.00000000E+00  0.00000000E+00
  0.00000000E+00  0.00000000E+00  0.00000000E+00
  0.00000000E+00  0.00000000E+00  0.00000000E+00
  0.00000000E+00  0.00000000E+00  0.00000000E+00
  0.00000000E+00  0.00000000E+00  0.00000000E+00
  0.00000000E+00  0.00000000E+00  0.00000000E+00
  0.00000000E+00  0.00000000E+00  0.00000000E+00
  0.00000000E+00  0.00000000E+00  0.00000000E+00
  0.00000000E+00  0.00000000E+00  0.00000000E+00
  0.00000000E+00  0.00000000E+00  0.00000000E+00
  0.00000000E+00  0.00000000E+00  0.00000000E+00
  0.00000000E+00  0.00000000E+00  0.00000000E+00
  0.00000000E+00  0.00000000E+00  0.00000000E+00
  0.00000000E+00  0.00000000E+00  0.00000000E+00
  0.00000000E+00  0.00000000E+00  0.00000000E+00
  0.00000000E+00  0.00000000E+00  0.00000000E+00
  0.00000000E+00  0.00000000E+00  0.00000000E+00
  0.00000000E+00  0.00000000E+00  0.00000000E+00
  0.00000000E+00  0.00000000E+00  0.00000000E+00
  0.00000000E+00  0.00000000E+00  0.00000000E+00
  0.00000000E+00  0.00000000E+00  0.00000000E+00
  0.00000000E+00  0.00000000E+00  0.00000000E+00
  0.00000000E+00  0.00000000E+00  0.00000000E+00
  0.00000000E+00  0.00000000E+00  0.00000000E+00
  0.00000000E+00  0.00000000E+00  0.00000000E+00
  0.00000000E+00  0.00000000E+00  0.00000000E+00
  0.00000000E+00  0.00000000E+00  0.00000000E+00
  0.00000000E+00  0.00000000E+00  0.00000000E+00
  0.00000000E+00  0.00000000E+00  0.00000000E+00
  0.00000000E+00  0.00000000E+00  0.00000000E+00
  0.00000000E+00  0.00000000E+00  0.00000000E+00
  0.00000000E+00  0.00000000E+00  0.00000000E+00
  0.00000000E+00  0.00000000E+00  0.00000000E+00
  0.00000000E+00  0.00000000E+00  0.00000000E+00
  0.00000000E+00  0.00000000E+00  0.00000000E+00
  0.00000000E+00  0.00000000E+00  0.00000000E+00
  0.00000000E+00  0.00000000E+00  0.00000000E+00
  0.00000000E+00  0.00000000E+00  0.00000000E+00
  0.00000000E+00  0.00000000E+00  0.00000000E+00
  0.00000000E+00  0.00000000E+00  0.00000000E+00
  0.00000000E+00  0.00000000E+00  0.00000000E+00
  0.00000000E+00  0.00000000E+00  0.00000000E+00
  0.00000000E+00  0.00000000E+00  0.00000000E+00
  0.00000000E+00  0.00000000E+00  0.00000000E+00
  0.00000000E+00  0.00000000E+00  0.00000000E+00
  0.00000000E+00  0.00000000E+00  0.00000000E+00
  0.00000000E+00  0.00000000E+00  0.00000000E+00
  0.00000000E+00  0.00000000E+00  0.00000000E+00
  0.00000000E+00  0.00000000E+00  0.00000000E+00
  0.00000000E+00  0.00000000E+00  0.00000000E+00
  0.00000000E+00  0.00000000E+00  0.00000000E+00
  0.00000000E+00  0.00000000E+00  0.00000000E+00
  0.00000000E+00  0.00000000E+00  0.00000000E+00
  0.00000000E+00  0.00000000E+00  0.00000000E+00
  0.00000000E+00  0.00000000E+00  0.00000000E+00
  0.00000000E+00  0.00000000E+00  0.00000000E+00
  0.00000000E+00  0.00000000E+00  0.00000000E+00
  0.00000000E+00  0.00000000E+00  0.00000000E+00
  0.00000000E+00  0.00000000E+00  0.00000000E+00
  0.00000000E+00  0.00000000E+00  0.00000000E+00
  0.00000000E+00  0.00000000E+00  0.00000000E+00
  0.00000000E+00  0.00000000E+00  0.00000000E+00
  0.00000000E+00  0.00000000E+00  0.00000000E+00
  0.00000000E+00  0.00000000E+00  0.00000000E+00
  0.00000000E+00  0.00000000E+00  0.00000000E+00
  0.00000000E+00  0.00000000E+00  0.00000000E+00
  0.00000000E+00  0.00000000E+00  0.00000000E+00
  0.00000000E+00  0.00000000E+00  0.00000000E+00
  0.00000000E+00  0.00000000E+00  0.00000000E+00
  0.00000000E+00  0.00000000E+00  0.00000000E+00
  0.00000000E+00  0.00000000E+00  0.00000000E+00
  0.00000000E+00  0.00000000E+00  0.00000000E+00
