Mg3
1.0
   7.6982619999999997   -1.6056230000000000    0.0000000000000000
   7.6982619999999997    1.6056230000000000    0.0000000000000000
   7.3633769999999998    0.0000000000000000    2.7607849999999998
Mg
3
direct
   0.0000000000000000    0.0000000000000000    0.0000000000000000 Mg
   0.2222080000000000    0.2222080000000000    0.2222080000000000 Mg
   0.7777920000000000    0.7777920000000000    0.7777920000000000 Mg
