# May want to change NCORE, KPAR, AEXX, ENCUT, NUPDOWN, ISPIN, POTIM = Typical variable parameters
AEXX = 0.25
ALGO = All
EDIFF = 1e-05
EDIFFG = -0.01
ENCUT = 350
GGA = Pe
HFSCREEN = 0.208
IBRION = 2
ICHARG = 1
ICORELEVEL = 0  # needed if using the kumagai-oba (efnv) anisotropic charge correction scheme
ISIF = 2
ISMEAR = 0
ISPIN = 2
ISYM = 0  # symmetry breaking extremely likely for defects
KPAR = 2
LASPH = True
LHFCALC = True
LMAXMIX = 4
LORBIT = 11
LREAL = Auto
LVHAR = False
NCORE = 10
NEDOS = 2000
NELECT = 584.0
NSW = 200
NUPDOWN = 0
PREC = Accurate
PRECFOCK = Fast
SIGMA = 0.05
